p cnf 105 3285
-1 0
-2 0
-7 0
-8 0
-9 0
10 0
-11 0
13 0
-16 0
-17 0
18 0
19 0
-23 0
-24 0
-25 0
-26 0
-31 0
-32 0
-33 0
-37 0
-41 0
42 0
-43 0
-48 0
-49 0
3 15 0
-3 -15 -50 0
3 50 0
15 50 0
4 22 0
-4 -22 -51 0
4 51 0
22 51 0
5 29 0
-5 -29 -52 0
5 52 0
29 52 0
6 36 0
-6 -36 -53 0
6 53 0
36 53 0
12 30 0
-12 -30 -54 0
12 54 0
30 54 0
14 44 0
-14 -44 -55 0
14 55 0
44 55 0
20 38 0
-20 -38 -56 0
20 56 0
38 56 0
21 45 0
-21 -45 -57 0
21 57 0
45 57 0
27 39 0
-27 -39 -58 0
27 58 0
39 58 0
28 46 0
-28 -46 -59 0
28 59 0
46 59 0
34 40 0
-34 -40 -60 0
34 60 0
40 60 0
35 47 0
-35 -47 -61 0
35 61 0
47 61 0
50 62 0
-63 0
-64 0
-65 0
51 66 0
-62 66 0
51 -62 67 0
-63 67 0
51 -63 68 0
-64 68 0
51 -64 69 0
-65 69 0
52 70 0
-66 70 0
52 -66 71 0
-67 71 0
52 -67 72 0
-68 72 0
52 -68 73 0
-69 73 0
53 74 0
-70 74 0
53 -70 75 0
-71 75 0
53 -71 76 0
-72 76 0
53 -72 77 0
-73 77 0
54 78 0
-74 78 0
54 -74 79 0
-75 79 0
54 -75 80 0
-76 80 0
54 -76 81 0
-77 81 0
55 82 0
-78 82 0
55 -78 83 0
-79 83 0
55 -79 84 0
-80 84 0
55 -80 85 0
-81 85 0
56 86 0
-82 86 0
56 -82 87 0
-83 87 0
56 -83 88 0
-84 88 0
56 -84 89 0
-85 89 0
57 90 0
-86 90 0
57 -86 91 0
-87 91 0
57 -87 92 0
-88 92 0
57 -88 93 0
-89 93 0
58 94 0
-90 94 0
58 -90 95 0
-91 95 0
58 -91 96 0
-92 96 0
58 -92 97 0
-93 97 0
59 98 0
-94 98 0
59 -94 99 0
-95 99 0
59 -95 100 0
-96 100 0
59 -96 101 0
-97 101 0
60 102 0
-98 102 0
60 -98 103 0
-99 103 0
60 -99 104 0
-100 104 0
60 -100 105 0
-101 105 0
51 -65 0
52 -69 0
53 -73 0
54 -77 0
55 -81 0
56 -85 0
57 -89 0
58 -93 0
59 -97 0
60 -101 0
61 -105 0
3 -15 4 -22 5 -29 6 -36 12 -30 14 -44 20 -38 21 -45 27 -39 28 -46 34 -40 35 -47 0
3 -15 4 -22 5 -29 6 -36 12 -30 14 -44 20 -38 21 -45 27 -39 28 -46 34 -40 -35 47 0
3 -15 4 -22 5 -29 6 -36 12 -30 14 -44 20 -38 21 -45 27 -39 28 -46 34 -40 -35 -47 0
-3 -15 -4 -22 -5 -29 -6 36 -12 -30 -14 44 -20 38 -21 45 -27 39 -28 46 -34 40 -35 47 0
-3 -15 -4 -22 -5 -29 -6 36 -12 -30 -14 44 -20 38 -21 45 -27 39 -28 46 -34 40 35 -47 0
-3 15 -4 22 -5 29 -6 36 -12 30 -14 44 -20 38 -21 45 -27 39 -28 46 -34 40 -35 -47 0
3 -15 -4 22 -5 29 -6 36 -12 30 -14 44 -20 38 -21 45 -27 39 -28 46 -34 40 -35 -47 0
-3 15 4 -22 5 -29 6 -36 12 -30 14 -44 20 -38 21 -45 27 -39 28 -46 34 -40 35 -47 0
-3 -15 4 -22 5 -29 6 -36 12 -30 14 -44 20 -38 21 -45 27 -39 28 -46 34 -40 35 -47 0
3 -15 -4 22 5 -29 6 -36 12 -30 14 -44 20 -38 21 -45 27 -39 28 -46 34 -40 35 -47 0
-3 -15 -4 22 5 -29 6 -36 12 -30 14 -44 20 -38 21 -45 27 -39 28 -46 34 -40 35 -47 0
-3 15 -4 22 5 -29 6 -36 12 -30 14 -44 20 -38 21 -45 27 -39 28 -46 34 -40 35 -47 0
-3 15 -4 -22 5 -29 6 -36 12 -30 14 -44 20 -38 21 -45 27 -39 28 -46 34 -40 35 -47 0
-3 -15 -4 -22 5 -29 6 -36 12 -30 14 -44 20 -38 21 -45 27 -39 28 -46 34 -40 35 -47 0
3 -15 -4 -22 5 -29 6 -36 12 -30 14 -44 20 -38 21 -45 27 -39 28 -46 34 -40 35 -47 0
3 -15 -4 -22 -5 29 6 -36 12 -30 14 -44 20 -38 21 -45 27 -39 28 -46 34 -40 35 -47 0
-3 -15 -4 -22 -5 29 6 -36 12 -30 14 -44 20 -38 21 -45 27 -39 28 -46 34 -40 35 -47 0
-3 15 -4 -22 -5 29 6 -36 12 -30 14 -44 20 -38 21 -45 27 -39 28 -46 34 -40 35 -47 0
-3 15 4 -22 -5 29 6 -36 12 -30 14 -44 20 -38 21 -45 27 -39 28 -46 34 -40 35 -47 0
-3 -15 4 -22 -5 29 6 -36 12 -30 14 -44 20 -38 21 -45 27 -39 28 -46 34 -40 35 -47 0
3 -15 4 -22 -5 29 6 -36 12 -30 14 -44 20 -38 21 -45 27 -39 28 -46 34 -40 35 -47 0
3 -15 -4 22 -5 29 6 -36 12 -30 14 -44 20 -38 21 -45 27 -39 28 -46 34 -40 35 -47 0
-3 -15 -4 22 -5 29 6 -36 12 -30 14 -44 20 -38 21 -45 27 -39 28 -46 34 -40 35 -47 0
-3 15 -4 22 -5 29 6 -36 12 -30 14 -44 20 -38 21 -45 27 -39 28 -46 34 -40 35 -47 0
-3 15 -4 22 -5 29 -6 36 12 -30 14 -44 20 -38 21 -45 27 -39 28 -46 34 -40 35 -47 0
-3 -15 -4 22 -5 29 -6 36 12 -30 14 -44 20 -38 21 -45 27 -39 28 -46 34 -40 35 -47 0
3 -15 -4 22 -5 29 -6 36 12 -30 14 -44 20 -38 21 -45 27 -39 28 -46 34 -40 35 -47 0
3 -15 -4 -22 -5 29 -6 36 12 -30 14 -44 20 -38 21 -45 27 -39 28 -46 34 -40 35 -47 0
-3 -15 -4 -22 -5 29 -6 36 12 -30 14 -44 20 -38 21 -45 27 -39 28 -46 34 -40 35 -47 0
-3 15 -4 -22 -5 29 -6 36 12 -30 14 -44 20 -38 21 -45 27 -39 28 -46 34 -40 35 -47 0
-3 15 4 -22 -5 29 -6 36 12 -30 14 -44 20 -38 21 -45 27 -39 28 -46 34 -40 35 -47 0
-3 -15 4 -22 -5 29 -6 36 12 -30 14 -44 20 -38 21 -45 27 -39 28 -46 34 -40 35 -47 0
3 -15 4 -22 -5 29 -6 36 12 -30 14 -44 20 -38 21 -45 27 -39 28 -46 34 -40 35 -47 0
-3 -15 4 -22 5 -29 -6 36 12 -30 14 -44 20 -38 21 -45 27 -39 28 -46 34 -40 35 -47 0
3 -15 4 -22 5 -29 -6 36 12 -30 14 -44 20 -38 21 -45 27 -39 28 -46 34 -40 35 -47 0
-3 15 4 -22 5 -29 -6 36 12 -30 14 -44 20 -38 21 -45 27 -39 28 -46 34 -40 35 -47 0
-3 15 -4 -22 5 -29 -6 36 12 -30 14 -44 20 -38 21 -45 27 -39 28 -46 34 -40 35 -47 0
-3 -15 -4 -22 5 -29 -6 36 12 -30 14 -44 20 -38 21 -45 27 -39 28 -46 34 -40 35 -47 0
3 -15 -4 -22 5 -29 -6 36 12 -30 14 -44 20 -38 21 -45 27 -39 28 -46 34 -40 35 -47 0
3 -15 -4 22 5 -29 -6 36 12 -30 14 -44 20 -38 21 -45 27 -39 28 -46 34 -40 35 -47 0
-3 -15 -4 22 5 -29 -6 36 12 -30 14 -44 20 -38 21 -45 27 -39 28 -46 34 -40 35 -47 0
-3 15 -4 22 5 -29 -6 36 12 -30 14 -44 20 -38 21 -45 27 -39 28 -46 34 -40 35 -47 0
-3 15 -4 22 5 -29 -6 36 -12 30 14 -44 20 -38 21 -45 27 -39 28 -46 34 -40 35 -47 0
-3 -15 -4 22 5 -29 -6 36 -12 30 14 -44 20 -38 21 -45 27 -39 28 -46 34 -40 35 -47 0
3 -15 -4 22 5 -29 -6 36 -12 30 14 -44 20 -38 21 -45 27 -39 28 -46 34 -40 35 -47 0
3 -15 -4 -22 5 -29 -6 36 -12 30 14 -44 20 -38 21 -45 27 -39 28 -46 34 -40 35 -47 0
-3 -15 -4 -22 5 -29 -6 36 -12 30 14 -44 20 -38 21 -45 27 -39 28 -46 34 -40 35 -47 0
-3 15 -4 -22 5 -29 -6 36 -12 30 14 -44 20 -38 21 -45 27 -39 28 -46 34 -40 35 -47 0
-3 15 4 -22 5 -29 -6 36 -12 30 14 -44 20 -38 21 -45 27 -39 28 -46 34 -40 35 -47 0
-3 -15 4 -22 5 -29 -6 36 -12 30 14 -44 20 -38 21 -45 27 -39 28 -46 34 -40 35 -47 0
3 -15 4 -22 5 -29 -6 36 -12 30 14 -44 20 -38 21 -45 27 -39 28 -46 34 -40 35 -47 0
-3 -15 4 -22 -5 29 -6 36 -12 30 14 -44 20 -38 21 -45 27 -39 28 -46 34 -40 35 -47 0
3 -15 4 -22 -5 29 -6 36 -12 30 14 -44 20 -38 21 -45 27 -39 28 -46 34 -40 35 -47 0
-3 15 4 -22 -5 29 -6 36 -12 30 14 -44 20 -38 21 -45 27 -39 28 -46 34 -40 35 -47 0
-3 15 -4 -22 -5 29 -6 36 -12 30 14 -44 20 -38 21 -45 27 -39 28 -46 34 -40 35 -47 0
-3 -15 -4 -22 -5 29 -6 36 -12 30 14 -44 20 -38 21 -45 27 -39 28 -46 34 -40 35 -47 0
3 -15 -4 -22 -5 29 -6 36 -12 30 14 -44 20 -38 21 -45 27 -39 28 -46 34 -40 35 -47 0
3 -15 -4 22 -5 29 -6 36 -12 30 14 -44 20 -38 21 -45 27 -39 28 -46 34 -40 35 -47 0
-3 -15 -4 22 -5 29 -6 36 -12 30 14 -44 20 -38 21 -45 27 -39 28 -46 34 -40 35 -47 0
-3 15 -4 22 -5 29 -6 36 -12 30 14 -44 20 -38 21 -45 27 -39 28 -46 34 -40 35 -47 0
-3 15 -4 22 -5 29 6 -36 -12 30 14 -44 20 -38 21 -45 27 -39 28 -46 34 -40 35 -47 0
-3 -15 -4 22 -5 29 6 -36 -12 30 14 -44 20 -38 21 -45 27 -39 28 -46 34 -40 35 -47 0
3 -15 -4 22 -5 29 6 -36 -12 30 14 -44 20 -38 21 -45 27 -39 28 -46 34 -40 35 -47 0
-3 -15 -4 -22 -5 29 6 -36 -12 30 14 -44 20 -38 21 -45 27 -39 28 -46 34 -40 35 -47 0
3 -15 -4 -22 -5 29 6 -36 -12 30 14 -44 20 -38 21 -45 27 -39 28 -46 34 -40 35 -47 0
-3 15 -4 -22 -5 29 6 -36 -12 30 14 -44 20 -38 21 -45 27 -39 28 -46 34 -40 35 -47 0
-3 15 4 -22 -5 29 6 -36 -12 30 14 -44 20 -38 21 -45 27 -39 28 -46 34 -40 35 -47 0
-3 -15 4 -22 -5 29 6 -36 -12 30 14 -44 20 -38 21 -45 27 -39 28 -46 34 -40 35 -47 0
3 -15 4 -22 -5 29 6 -36 -12 30 14 -44 20 -38 21 -45 27 -39 28 -46 34 -40 35 -47 0
3 -15 4 -22 5 -29 6 -36 -12 30 14 -44 20 -38 21 -45 27 -39 28 -46 34 -40 35 -47 0
-3 -15 4 -22 5 -29 6 -36 -12 30 14 -44 20 -38 21 -45 27 -39 28 -46 34 -40 35 -47 0
-3 15 4 -22 5 -29 6 -36 -12 30 14 -44 20 -38 21 -45 27 -39 28 -46 34 -40 35 -47 0
-3 15 -4 -22 5 -29 6 -36 -12 30 14 -44 20 -38 21 -45 27 -39 28 -46 34 -40 35 -47 0
-3 -15 -4 -22 5 -29 6 -36 -12 30 14 -44 20 -38 21 -45 27 -39 28 -46 34 -40 35 -47 0
3 -15 -4 -22 5 -29 6 -36 -12 30 14 -44 20 -38 21 -45 27 -39 28 -46 34 -40 35 -47 0
3 -15 -4 22 5 -29 6 -36 -12 30 14 -44 20 -38 21 -45 27 -39 28 -46 34 -40 35 -47 0
-3 -15 -4 22 5 -29 6 -36 -12 30 14 -44 20 -38 21 -45 27 -39 28 -46 34 -40 35 -47 0
-3 15 -4 22 5 -29 6 -36 -12 30 14 -44 20 -38 21 -45 27 -39 28 -46 34 -40 35 -47 0
-3 15 -4 22 5 -29 6 -36 -12 30 -14 44 20 -38 21 -45 27 -39 28 -46 34 -40 35 -47 0
-3 -15 -4 22 5 -29 6 -36 -12 30 -14 44 20 -38 21 -45 27 -39 28 -46 34 -40 35 -47 0
3 -15 -4 22 5 -29 6 -36 -12 30 -14 44 20 -38 21 -45 27 -39 28 -46 34 -40 35 -47 0
3 -15 -4 -22 5 -29 6 -36 -12 30 -14 44 20 -38 21 -45 27 -39 28 -46 34 -40 35 -47 0
-3 -15 -4 -22 5 -29 6 -36 -12 30 -14 44 20 -38 21 -45 27 -39 28 -46 34 -40 35 -47 0
-3 15 -4 -22 5 -29 6 -36 -12 30 -14 44 20 -38 21 -45 27 -39 28 -46 34 -40 35 -47 0
-3 15 4 -22 5 -29 6 -36 -12 30 -14 44 20 -38 21 -45 27 -39 28 -46 34 -40 35 -47 0
-3 -15 4 -22 5 -29 6 -36 -12 30 -14 44 20 -38 21 -45 27 -39 28 -46 34 -40 35 -47 0
3 -15 4 -22 5 -29 6 -36 -12 30 -14 44 20 -38 21 -45 27 -39 28 -46 34 -40 35 -47 0
-3 -15 4 -22 -5 29 6 -36 -12 30 -14 44 20 -38 21 -45 27 -39 28 -46 34 -40 35 -47 0
3 -15 4 -22 -5 29 6 -36 -12 30 -14 44 20 -38 21 -45 27 -39 28 -46 34 -40 35 -47 0
-3 15 4 -22 -5 29 6 -36 -12 30 -14 44 20 -38 21 -45 27 -39 28 -46 34 -40 35 -47 0
-3 15 -4 -22 -5 29 6 -36 -12 30 -14 44 20 -38 21 -45 27 -39 28 -46 34 -40 35 -47 0
-3 -15 -4 -22 -5 29 6 -36 -12 30 -14 44 20 -38 21 -45 27 -39 28 -46 34 -40 35 -47 0
3 -15 -4 -22 -5 29 6 -36 -12 30 -14 44 20 -38 21 -45 27 -39 28 -46 34 -40 35 -47 0
3 -15 -4 22 -5 29 6 -36 -12 30 -14 44 20 -38 21 -45 27 -39 28 -46 34 -40 35 -47 0
-3 -15 -4 22 -5 29 6 -36 -12 30 -14 44 20 -38 21 -45 27 -39 28 -46 34 -40 35 -47 0
-3 15 -4 22 -5 29 6 -36 -12 30 -14 44 20 -38 21 -45 27 -39 28 -46 34 -40 35 -47 0
-3 15 -4 22 -5 29 -6 36 -12 30 -14 44 20 -38 21 -45 27 -39 28 -46 34 -40 35 -47 0
-3 -15 -4 22 -5 29 -6 36 -12 30 -14 44 20 -38 21 -45 27 -39 28 -46 34 -40 35 -47 0
3 -15 -4 22 -5 29 -6 36 -12 30 -14 44 20 -38 21 -45 27 -39 28 -46 34 -40 35 -47 0
3 -15 -4 -22 -5 29 -6 36 -12 30 -14 44 20 -38 21 -45 27 -39 28 -46 34 -40 35 -47 0
-3 -15 -4 -22 -5 29 -6 36 -12 30 -14 44 20 -38 21 -45 27 -39 28 -46 34 -40 35 -47 0
-3 15 -4 -22 -5 29 -6 36 -12 30 -14 44 20 -38 21 -45 27 -39 28 -46 34 -40 35 -47 0
-3 15 4 -22 -5 29 -6 36 -12 30 -14 44 20 -38 21 -45 27 -39 28 -46 34 -40 35 -47 0
-3 -15 4 -22 -5 29 -6 36 -12 30 -14 44 20 -38 21 -45 27 -39 28 -46 34 -40 35 -47 0
3 -15 4 -22 -5 29 -6 36 -12 30 -14 44 20 -38 21 -45 27 -39 28 -46 34 -40 35 -47 0
3 -15 4 -22 5 -29 -6 36 -12 30 -14 44 20 -38 21 -45 27 -39 28 -46 34 -40 35 -47 0
-3 -15 4 -22 5 -29 -6 36 -12 30 -14 44 20 -38 21 -45 27 -39 28 -46 34 -40 35 -47 0
-3 15 4 -22 5 -29 -6 36 -12 30 -14 44 20 -38 21 -45 27 -39 28 -46 34 -40 35 -47 0
-3 15 -4 -22 5 -29 -6 36 -12 30 -14 44 20 -38 21 -45 27 -39 28 -46 34 -40 35 -47 0
-3 -15 -4 -22 5 -29 -6 36 -12 30 -14 44 20 -38 21 -45 27 -39 28 -46 34 -40 35 -47 0
3 -15 -4 -22 5 -29 -6 36 -12 30 -14 44 20 -38 21 -45 27 -39 28 -46 34 -40 35 -47 0
3 -15 -4 22 5 -29 -6 36 -12 30 -14 44 20 -38 21 -45 27 -39 28 -46 34 -40 35 -47 0
-3 -15 -4 22 5 -29 -6 36 -12 30 -14 44 20 -38 21 -45 27 -39 28 -46 34 -40 35 -47 0
-3 15 -4 22 5 -29 -6 36 -12 30 -14 44 20 -38 21 -45 27 -39 28 -46 34 -40 35 -47 0
-3 15 -4 22 5 -29 -6 36 12 -30 -14 44 20 -38 21 -45 27 -39 28 -46 34 -40 35 -47 0
-3 -15 -4 22 5 -29 -6 36 12 -30 -14 44 20 -38 21 -45 27 -39 28 -46 34 -40 35 -47 0
3 -15 -4 22 5 -29 -6 36 12 -30 -14 44 20 -38 21 -45 27 -39 28 -46 34 -40 35 -47 0
3 -15 -4 -22 5 -29 -6 36 12 -30 -14 44 20 -38 21 -45 27 -39 28 -46 34 -40 35 -47 0
-3 -15 -4 -22 5 -29 -6 36 12 -30 -14 44 20 -38 21 -45 27 -39 28 -46 34 -40 35 -47 0
-3 15 -4 -22 5 -29 -6 36 12 -30 -14 44 20 -38 21 -45 27 -39 28 -46 34 -40 35 -47 0
-3 15 4 -22 5 -29 -6 36 12 -30 -14 44 20 -38 21 -45 27 -39 28 -46 34 -40 35 -47 0
-3 -15 4 -22 5 -29 -6 36 12 -30 -14 44 20 -38 21 -45 27 -39 28 -46 34 -40 35 -47 0
3 -15 4 -22 5 -29 -6 36 12 -30 -14 44 20 -38 21 -45 27 -39 28 -46 34 -40 35 -47 0
3 -15 4 -22 -5 29 -6 36 12 -30 -14 44 20 -38 21 -45 27 -39 28 -46 34 -40 35 -47 0
-3 -15 4 -22 -5 29 -6 36 12 -30 -14 44 20 -38 21 -45 27 -39 28 -46 34 -40 35 -47 0
-3 15 4 -22 -5 29 -6 36 12 -30 -14 44 20 -38 21 -45 27 -39 28 -46 34 -40 35 -47 0
-3 15 -4 -22 -5 29 -6 36 12 -30 -14 44 20 -38 21 -45 27 -39 28 -46 34 -40 35 -47 0
-3 -15 -4 -22 -5 29 -6 36 12 -30 -14 44 20 -38 21 -45 27 -39 28 -46 34 -40 35 -47 0
3 -15 -4 -22 -5 29 -6 36 12 -30 -14 44 20 -38 21 -45 27 -39 28 -46 34 -40 35 -47 0
-3 -15 -4 22 -5 29 -6 36 12 -30 -14 44 20 -38 21 -45 27 -39 28 -46 34 -40 35 -47 0
3 -15 -4 22 -5 29 -6 36 12 -30 -14 44 20 -38 21 -45 27 -39 28 -46 34 -40 35 -47 0
-3 15 -4 22 -5 29 -6 36 12 -30 -14 44 20 -38 21 -45 27 -39 28 -46 34 -40 35 -47 0
-3 15 -4 22 -5 29 6 -36 12 -30 -14 44 20 -38 21 -45 27 -39 28 -46 34 -40 35 -47 0
-3 -15 -4 22 -5 29 6 -36 12 -30 -14 44 20 -38 21 -45 27 -39 28 -46 34 -40 35 -47 0
3 -15 -4 22 -5 29 6 -36 12 -30 -14 44 20 -38 21 -45 27 -39 28 -46 34 -40 35 -47 0
-3 -15 -4 -22 -5 29 6 -36 12 -30 -14 44 20 -38 21 -45 27 -39 28 -46 34 -40 35 -47 0
3 -15 -4 -22 -5 29 6 -36 12 -30 -14 44 20 -38 21 -45 27 -39 28 -46 34 -40 35 -47 0
-3 15 -4 -22 -5 29 6 -36 12 -30 -14 44 20 -38 21 -45 27 -39 28 -46 34 -40 35 -47 0
-3 15 4 -22 -5 29 6 -36 12 -30 -14 44 20 -38 21 -45 27 -39 28 -46 34 -40 35 -47 0
-3 -15 4 -22 -5 29 6 -36 12 -30 -14 44 20 -38 21 -45 27 -39 28 -46 34 -40 35 -47 0
3 -15 4 -22 -5 29 6 -36 12 -30 -14 44 20 -38 21 -45 27 -39 28 -46 34 -40 35 -47 0
-3 -15 4 -22 5 -29 6 -36 12 -30 -14 44 20 -38 21 -45 27 -39 28 -46 34 -40 35 -47 0
3 -15 4 -22 5 -29 6 -36 12 -30 -14 44 20 -38 21 -45 27 -39 28 -46 34 -40 35 -47 0
-3 15 4 -22 5 -29 6 -36 12 -30 -14 44 20 -38 21 -45 27 -39 28 -46 34 -40 35 -47 0
-3 15 -4 -22 5 -29 6 -36 12 -30 -14 44 20 -38 21 -45 27 -39 28 -46 34 -40 35 -47 0
-3 -15 -4 -22 5 -29 6 -36 12 -30 -14 44 20 -38 21 -45 27 -39 28 -46 34 -40 35 -47 0
3 -15 -4 -22 5 -29 6 -36 12 -30 -14 44 20 -38 21 -45 27 -39 28 -46 34 -40 35 -47 0
3 -15 -4 22 5 -29 6 -36 12 -30 -14 44 20 -38 21 -45 27 -39 28 -46 34 -40 35 -47 0
-3 -15 -4 22 5 -29 6 -36 12 -30 -14 44 20 -38 21 -45 27 -39 28 -46 34 -40 35 -47 0
-3 15 -4 22 5 -29 6 -36 12 -30 -14 44 20 -38 21 -45 27 -39 28 -46 34 -40 35 -47 0
-3 15 -4 22 5 -29 6 -36 12 -30 -14 44 -20 38 21 -45 27 -39 28 -46 34 -40 35 -47 0
-3 -15 -4 22 5 -29 6 -36 12 -30 -14 44 -20 38 21 -45 27 -39 28 -46 34 -40 35 -47 0
3 -15 -4 22 5 -29 6 -36 12 -30 -14 44 -20 38 21 -45 27 -39 28 -46 34 -40 35 -47 0
3 -15 -4 -22 5 -29 6 -36 12 -30 -14 44 -20 38 21 -45 27 -39 28 -46 34 -40 35 -47 0
-3 -15 -4 -22 5 -29 6 -36 12 -30 -14 44 -20 38 21 -45 27 -39 28 -46 34 -40 35 -47 0
-3 15 -4 -22 5 -29 6 -36 12 -30 -14 44 -20 38 21 -45 27 -39 28 -46 34 -40 35 -47 0
-3 15 4 -22 5 -29 6 -36 12 -30 -14 44 -20 38 21 -45 27 -39 28 -46 34 -40 35 -47 0
-3 -15 4 -22 5 -29 6 -36 12 -30 -14 44 -20 38 21 -45 27 -39 28 -46 34 -40 35 -47 0
3 -15 4 -22 5 -29 6 -36 12 -30 -14 44 -20 38 21 -45 27 -39 28 -46 34 -40 35 -47 0
-3 -15 4 -22 -5 29 6 -36 12 -30 -14 44 -20 38 21 -45 27 -39 28 -46 34 -40 35 -47 0
3 -15 4 -22 -5 29 6 -36 12 -30 -14 44 -20 38 21 -45 27 -39 28 -46 34 -40 35 -47 0
-3 15 4 -22 -5 29 6 -36 12 -30 -14 44 -20 38 21 -45 27 -39 28 -46 34 -40 35 -47 0
-3 15 -4 -22 -5 29 6 -36 12 -30 -14 44 -20 38 21 -45 27 -39 28 -46 34 -40 35 -47 0
-3 -15 -4 -22 -5 29 6 -36 12 -30 -14 44 -20 38 21 -45 27 -39 28 -46 34 -40 35 -47 0
3 -15 -4 -22 -5 29 6 -36 12 -30 -14 44 -20 38 21 -45 27 -39 28 -46 34 -40 35 -47 0
3 -15 -4 22 -5 29 6 -36 12 -30 -14 44 -20 38 21 -45 27 -39 28 -46 34 -40 35 -47 0
-3 -15 -4 22 -5 29 6 -36 12 -30 -14 44 -20 38 21 -45 27 -39 28 -46 34 -40 35 -47 0
-3 15 -4 22 -5 29 6 -36 12 -30 -14 44 -20 38 21 -45 27 -39 28 -46 34 -40 35 -47 0
-3 15 -4 22 -5 29 -6 36 12 -30 -14 44 -20 38 21 -45 27 -39 28 -46 34 -40 35 -47 0
-3 -15 -4 22 -5 29 -6 36 12 -30 -14 44 -20 38 21 -45 27 -39 28 -46 34 -40 35 -47 0
3 -15 -4 22 -5 29 -6 36 12 -30 -14 44 -20 38 21 -45 27 -39 28 -46 34 -40 35 -47 0
-3 -15 -4 -22 -5 29 -6 36 12 -30 -14 44 -20 38 21 -45 27 -39 28 -46 34 -40 35 -47 0
3 -15 -4 -22 -5 29 -6 36 12 -30 -14 44 -20 38 21 -45 27 -39 28 -46 34 -40 35 -47 0
-3 15 -4 -22 -5 29 -6 36 12 -30 -14 44 -20 38 21 -45 27 -39 28 -46 34 -40 35 -47 0
-3 15 4 -22 -5 29 -6 36 12 -30 -14 44 -20 38 21 -45 27 -39 28 -46 34 -40 35 -47 0
-3 -15 4 -22 -5 29 -6 36 12 -30 -14 44 -20 38 21 -45 27 -39 28 -46 34 -40 35 -47 0
3 -15 4 -22 -5 29 -6 36 12 -30 -14 44 -20 38 21 -45 27 -39 28 -46 34 -40 35 -47 0
3 -15 4 -22 5 -29 -6 36 12 -30 -14 44 -20 38 21 -45 27 -39 28 -46 34 -40 35 -47 0
-3 -15 4 -22 5 -29 -6 36 12 -30 -14 44 -20 38 21 -45 27 -39 28 -46 34 -40 35 -47 0
-3 15 4 -22 5 -29 -6 36 12 -30 -14 44 -20 38 21 -45 27 -39 28 -46 34 -40 35 -47 0
-3 15 -4 -22 5 -29 -6 36 12 -30 -14 44 -20 38 21 -45 27 -39 28 -46 34 -40 35 -47 0
-3 -15 -4 -22 5 -29 -6 36 12 -30 -14 44 -20 38 21 -45 27 -39 28 -46 34 -40 35 -47 0
3 -15 -4 -22 5 -29 -6 36 12 -30 -14 44 -20 38 21 -45 27 -39 28 -46 34 -40 35 -47 0
3 -15 -4 22 5 -29 -6 36 12 -30 -14 44 -20 38 21 -45 27 -39 28 -46 34 -40 35 -47 0
-3 -15 -4 22 5 -29 -6 36 12 -30 -14 44 -20 38 21 -45 27 -39 28 -46 34 -40 35 -47 0
-3 15 -4 22 5 -29 -6 36 12 -30 -14 44 -20 38 21 -45 27 -39 28 -46 34 -40 35 -47 0
-3 15 -4 22 5 -29 -6 36 -12 30 -14 44 -20 38 21 -45 27 -39 28 -46 34 -40 35 -47 0
-3 -15 -4 22 5 -29 -6 36 -12 30 -14 44 -20 38 21 -45 27 -39 28 -46 34 -40 35 -47 0
3 -15 -4 22 5 -29 -6 36 -12 30 -14 44 -20 38 21 -45 27 -39 28 -46 34 -40 35 -47 0
3 -15 -4 -22 5 -29 -6 36 -12 30 -14 44 -20 38 21 -45 27 -39 28 -46 34 -40 35 -47 0
-3 -15 -4 -22 5 -29 -6 36 -12 30 -14 44 -20 38 21 -45 27 -39 28 -46 34 -40 35 -47 0
-3 15 -4 -22 5 -29 -6 36 -12 30 -14 44 -20 38 21 -45 27 -39 28 -46 34 -40 35 -47 0
-3 15 4 -22 5 -29 -6 36 -12 30 -14 44 -20 38 21 -45 27 -39 28 -46 34 -40 35 -47 0
-3 -15 4 -22 5 -29 -6 36 -12 30 -14 44 -20 38 21 -45 27 -39 28 -46 34 -40 35 -47 0
3 -15 4 -22 5 -29 -6 36 -12 30 -14 44 -20 38 21 -45 27 -39 28 -46 34 -40 35 -47 0
3 -15 4 -22 -5 29 -6 36 -12 30 -14 44 -20 38 21 -45 27 -39 28 -46 34 -40 35 -47 0
-3 -15 4 -22 -5 29 -6 36 -12 30 -14 44 -20 38 21 -45 27 -39 28 -46 34 -40 35 -47 0
-3 15 4 -22 -5 29 -6 36 -12 30 -14 44 -20 38 21 -45 27 -39 28 -46 34 -40 35 -47 0
-3 15 -4 -22 -5 29 -6 36 -12 30 -14 44 -20 38 21 -45 27 -39 28 -46 34 -40 35 -47 0
-3 -15 -4 -22 -5 29 -6 36 -12 30 -14 44 -20 38 21 -45 27 -39 28 -46 34 -40 35 -47 0
3 -15 -4 -22 -5 29 -6 36 -12 30 -14 44 -20 38 21 -45 27 -39 28 -46 34 -40 35 -47 0
-3 -15 -4 22 -5 29 -6 36 -12 30 -14 44 -20 38 21 -45 27 -39 28 -46 34 -40 35 -47 0
3 -15 -4 22 -5 29 -6 36 -12 30 -14 44 -20 38 21 -45 27 -39 28 -46 34 -40 35 -47 0
-3 15 -4 22 -5 29 -6 36 -12 30 -14 44 -20 38 21 -45 27 -39 28 -46 34 -40 35 -47 0
-3 15 -4 22 -5 29 6 -36 -12 30 -14 44 -20 38 21 -45 27 -39 28 -46 34 -40 35 -47 0
-3 -15 -4 22 -5 29 6 -36 -12 30 -14 44 -20 38 21 -45 27 -39 28 -46 34 -40 35 -47 0
3 -15 -4 22 -5 29 6 -36 -12 30 -14 44 -20 38 21 -45 27 -39 28 -46 34 -40 35 -47 0
-3 -15 -4 -22 -5 29 6 -36 -12 30 -14 44 -20 38 21 -45 27 -39 28 -46 34 -40 35 -47 0
3 -15 -4 -22 -5 29 6 -36 -12 30 -14 44 -20 38 21 -45 27 -39 28 -46 34 -40 35 -47 0
-3 15 -4 -22 -5 29 6 -36 -12 30 -14 44 -20 38 21 -45 27 -39 28 -46 34 -40 35 -47 0
-3 15 4 -22 -5 29 6 -36 -12 30 -14 44 -20 38 21 -45 27 -39 28 -46 34 -40 35 -47 0
-3 -15 4 -22 -5 29 6 -36 -12 30 -14 44 -20 38 21 -45 27 -39 28 -46 34 -40 35 -47 0
3 -15 4 -22 -5 29 6 -36 -12 30 -14 44 -20 38 21 -45 27 -39 28 -46 34 -40 35 -47 0
-3 -15 4 -22 5 -29 6 -36 -12 30 -14 44 -20 38 21 -45 27 -39 28 -46 34 -40 35 -47 0
3 -15 4 -22 5 -29 6 -36 -12 30 -14 44 -20 38 21 -45 27 -39 28 -46 34 -40 35 -47 0
-3 15 4 -22 5 -29 6 -36 -12 30 -14 44 -20 38 21 -45 27 -39 28 -46 34 -40 35 -47 0
-3 15 -4 -22 5 -29 6 -36 -12 30 -14 44 -20 38 21 -45 27 -39 28 -46 34 -40 35 -47 0
-3 -15 -4 -22 5 -29 6 -36 -12 30 -14 44 -20 38 21 -45 27 -39 28 -46 34 -40 35 -47 0
3 -15 -4 -22 5 -29 6 -36 -12 30 -14 44 -20 38 21 -45 27 -39 28 -46 34 -40 35 -47 0
-3 -15 -4 22 5 -29 6 -36 -12 30 -14 44 -20 38 21 -45 27 -39 28 -46 34 -40 35 -47 0
3 -15 -4 22 5 -29 6 -36 -12 30 -14 44 -20 38 21 -45 27 -39 28 -46 34 -40 35 -47 0
-3 15 -4 22 5 -29 6 -36 -12 30 -14 44 -20 38 21 -45 27 -39 28 -46 34 -40 35 -47 0
-3 15 -4 22 5 -29 6 -36 -12 30 14 -44 -20 38 21 -45 27 -39 28 -46 34 -40 35 -47 0
-3 -15 -4 22 5 -29 6 -36 -12 30 14 -44 -20 38 21 -45 27 -39 28 -46 34 -40 35 -47 0
3 -15 -4 22 5 -29 6 -36 -12 30 14 -44 -20 38 21 -45 27 -39 28 -46 34 -40 35 -47 0
-3 -15 -4 -22 5 -29 6 -36 -12 30 14 -44 -20 38 21 -45 27 -39 28 -46 34 -40 35 -47 0
3 -15 -4 -22 5 -29 6 -36 -12 30 14 -44 -20 38 21 -45 27 -39 28 -46 34 -40 35 -47 0
-3 15 -4 -22 5 -29 6 -36 -12 30 14 -44 -20 38 21 -45 27 -39 28 -46 34 -40 35 -47 0
-3 15 4 -22 5 -29 6 -36 -12 30 14 -44 -20 38 21 -45 27 -39 28 -46 34 -40 35 -47 0
-3 -15 4 -22 5 -29 6 -36 -12 30 14 -44 -20 38 21 -45 27 -39 28 -46 34 -40 35 -47 0
3 -15 4 -22 5 -29 6 -36 -12 30 14 -44 -20 38 21 -45 27 -39 28 -46 34 -40 35 -47 0
3 -15 4 -22 -5 29 6 -36 -12 30 14 -44 -20 38 21 -45 27 -39 28 -46 34 -40 35 -47 0
-3 -15 4 -22 -5 29 6 -36 -12 30 14 -44 -20 38 21 -45 27 -39 28 -46 34 -40 35 -47 0
-3 15 4 -22 -5 29 6 -36 -12 30 14 -44 -20 38 21 -45 27 -39 28 -46 34 -40 35 -47 0
-3 15 -4 -22 -5 29 6 -36 -12 30 14 -44 -20 38 21 -45 27 -39 28 -46 34 -40 35 -47 0
-3 -15 -4 -22 -5 29 6 -36 -12 30 14 -44 -20 38 21 -45 27 -39 28 -46 34 -40 35 -47 0
3 -15 -4 -22 -5 29 6 -36 -12 30 14 -44 -20 38 21 -45 27 -39 28 -46 34 -40 35 -47 0
3 -15 -4 22 -5 29 6 -36 -12 30 14 -44 -20 38 21 -45 27 -39 28 -46 34 -40 35 -47 0
-3 -15 -4 22 -5 29 6 -36 -12 30 14 -44 -20 38 21 -45 27 -39 28 -46 34 -40 35 -47 0
-3 15 -4 22 -5 29 6 -36 -12 30 14 -44 -20 38 21 -45 27 -39 28 -46 34 -40 35 -47 0
-3 15 -4 22 -5 29 -6 36 -12 30 14 -44 -20 38 21 -45 27 -39 28 -46 34 -40 35 -47 0
-3 -15 -4 22 -5 29 -6 36 -12 30 14 -44 -20 38 21 -45 27 -39 28 -46 34 -40 35 -47 0
3 -15 -4 22 -5 29 -6 36 -12 30 14 -44 -20 38 21 -45 27 -39 28 -46 34 -40 35 -47 0
3 -15 -4 -22 -5 29 -6 36 -12 30 14 -44 -20 38 21 -45 27 -39 28 -46 34 -40 35 -47 0
-3 -15 -4 -22 -5 29 -6 36 -12 30 14 -44 -20 38 21 -45 27 -39 28 -46 34 -40 35 -47 0
-3 15 -4 -22 -5 29 -6 36 -12 30 14 -44 -20 38 21 -45 27 -39 28 -46 34 -40 35 -47 0
-3 15 4 -22 -5 29 -6 36 -12 30 14 -44 -20 38 21 -45 27 -39 28 -46 34 -40 35 -47 0
-3 -15 4 -22 -5 29 -6 36 -12 30 14 -44 -20 38 21 -45 27 -39 28 -46 34 -40 35 -47 0
3 -15 4 -22 -5 29 -6 36 -12 30 14 -44 -20 38 21 -45 27 -39 28 -46 34 -40 35 -47 0
-3 -15 4 -22 5 -29 -6 36 -12 30 14 -44 -20 38 21 -45 27 -39 28 -46 34 -40 35 -47 0
3 -15 4 -22 5 -29 -6 36 -12 30 14 -44 -20 38 21 -45 27 -39 28 -46 34 -40 35 -47 0
-3 15 4 -22 5 -29 -6 36 -12 30 14 -44 -20 38 21 -45 27 -39 28 -46 34 -40 35 -47 0
-3 15 -4 -22 5 -29 -6 36 -12 30 14 -44 -20 38 21 -45 27 -39 28 -46 34 -40 35 -47 0
-3 -15 -4 -22 5 -29 -6 36 -12 30 14 -44 -20 38 21 -45 27 -39 28 -46 34 -40 35 -47 0
3 -15 -4 -22 5 -29 -6 36 -12 30 14 -44 -20 38 21 -45 27 -39 28 -46 34 -40 35 -47 0
3 -15 -4 22 5 -29 -6 36 -12 30 14 -44 -20 38 21 -45 27 -39 28 -46 34 -40 35 -47 0
-3 -15 -4 22 5 -29 -6 36 -12 30 14 -44 -20 38 21 -45 27 -39 28 -46 34 -40 35 -47 0
-3 15 -4 22 5 -29 -6 36 -12 30 14 -44 -20 38 21 -45 27 -39 28 -46 34 -40 35 -47 0
-3 15 -4 22 5 -29 -6 36 12 -30 14 -44 -20 38 21 -45 27 -39 28 -46 34 -40 35 -47 0
-3 -15 -4 22 5 -29 -6 36 12 -30 14 -44 -20 38 21 -45 27 -39 28 -46 34 -40 35 -47 0
3 -15 -4 22 5 -29 -6 36 12 -30 14 -44 -20 38 21 -45 27 -39 28 -46 34 -40 35 -47 0
3 -15 -4 -22 5 -29 -6 36 12 -30 14 -44 -20 38 21 -45 27 -39 28 -46 34 -40 35 -47 0
-3 -15 -4 -22 5 -29 -6 36 12 -30 14 -44 -20 38 21 -45 27 -39 28 -46 34 -40 35 -47 0
-3 15 -4 -22 5 -29 -6 36 12 -30 14 -44 -20 38 21 -45 27 -39 28 -46 34 -40 35 -47 0
-3 15 4 -22 5 -29 -6 36 12 -30 14 -44 -20 38 21 -45 27 -39 28 -46 34 -40 35 -47 0
-3 -15 4 -22 5 -29 -6 36 12 -30 14 -44 -20 38 21 -45 27 -39 28 -46 34 -40 35 -47 0
3 -15 4 -22 5 -29 -6 36 12 -30 14 -44 -20 38 21 -45 27 -39 28 -46 34 -40 35 -47 0
3 -15 4 -22 -5 29 -6 36 12 -30 14 -44 -20 38 21 -45 27 -39 28 -46 34 -40 35 -47 0
-3 -15 4 -22 -5 29 -6 36 12 -30 14 -44 -20 38 21 -45 27 -39 28 -46 34 -40 35 -47 0
-3 15 4 -22 -5 29 -6 36 12 -30 14 -44 -20 38 21 -45 27 -39 28 -46 34 -40 35 -47 0
-3 15 -4 -22 -5 29 -6 36 12 -30 14 -44 -20 38 21 -45 27 -39 28 -46 34 -40 35 -47 0
-3 -15 -4 -22 -5 29 -6 36 12 -30 14 -44 -20 38 21 -45 27 -39 28 -46 34 -40 35 -47 0
3 -15 -4 -22 -5 29 -6 36 12 -30 14 -44 -20 38 21 -45 27 -39 28 -46 34 -40 35 -47 0
3 -15 -4 22 -5 29 -6 36 12 -30 14 -44 -20 38 21 -45 27 -39 28 -46 34 -40 35 -47 0
-3 -15 -4 22 -5 29 -6 36 12 -30 14 -44 -20 38 21 -45 27 -39 28 -46 34 -40 35 -47 0
-3 15 -4 22 -5 29 -6 36 12 -30 14 -44 -20 38 21 -45 27 -39 28 -46 34 -40 35 -47 0
-3 15 -4 22 -5 29 6 -36 12 -30 14 -44 -20 38 21 -45 27 -39 28 -46 34 -40 35 -47 0
-3 -15 -4 22 -5 29 6 -36 12 -30 14 -44 -20 38 21 -45 27 -39 28 -46 34 -40 35 -47 0
3 -15 -4 22 -5 29 6 -36 12 -30 14 -44 -20 38 21 -45 27 -39 28 -46 34 -40 35 -47 0
-3 -15 -4 -22 -5 29 6 -36 12 -30 14 -44 -20 38 21 -45 27 -39 28 -46 34 -40 35 -47 0
3 -15 -4 -22 -5 29 6 -36 12 -30 14 -44 -20 38 21 -45 27 -39 28 -46 34 -40 35 -47 0
-3 15 -4 -22 -5 29 6 -36 12 -30 14 -44 -20 38 21 -45 27 -39 28 -46 34 -40 35 -47 0
-3 15 4 -22 -5 29 6 -36 12 -30 14 -44 -20 38 21 -45 27 -39 28 -46 34 -40 35 -47 0
-3 -15 4 -22 -5 29 6 -36 12 -30 14 -44 -20 38 21 -45 27 -39 28 -46 34 -40 35 -47 0
3 -15 4 -22 -5 29 6 -36 12 -30 14 -44 -20 38 21 -45 27 -39 28 -46 34 -40 35 -47 0
-3 -15 4 -22 5 -29 6 -36 12 -30 14 -44 -20 38 21 -45 27 -39 28 -46 34 -40 35 -47 0
3 -15 4 -22 5 -29 6 -36 12 -30 14 -44 -20 38 21 -45 27 -39 28 -46 34 -40 35 -47 0
-3 15 4 -22 5 -29 6 -36 12 -30 14 -44 -20 38 21 -45 27 -39 28 -46 34 -40 35 -47 0
-3 15 -4 -22 5 -29 6 -36 12 -30 14 -44 -20 38 21 -45 27 -39 28 -46 34 -40 35 -47 0
-3 -15 -4 -22 5 -29 6 -36 12 -30 14 -44 -20 38 21 -45 27 -39 28 -46 34 -40 35 -47 0
3 -15 -4 -22 5 -29 6 -36 12 -30 14 -44 -20 38 21 -45 27 -39 28 -46 34 -40 35 -47 0
3 -15 -4 22 5 -29 6 -36 12 -30 14 -44 -20 38 21 -45 27 -39 28 -46 34 -40 35 -47 0
-3 -15 -4 22 5 -29 6 -36 12 -30 14 -44 -20 38 21 -45 27 -39 28 -46 34 -40 35 -47 0
-3 15 -4 22 5 -29 6 -36 12 -30 14 -44 -20 38 21 -45 27 -39 28 -46 34 -40 35 -47 0
-3 15 -4 22 5 -29 6 -36 12 -30 14 -44 -20 38 -21 45 27 -39 28 -46 34 -40 35 -47 0
-3 -15 -4 22 5 -29 6 -36 12 -30 14 -44 -20 38 -21 45 27 -39 28 -46 34 -40 35 -47 0
3 -15 -4 22 5 -29 6 -36 12 -30 14 -44 -20 38 -21 45 27 -39 28 -46 34 -40 35 -47 0
3 -15 -4 -22 5 -29 6 -36 12 -30 14 -44 -20 38 -21 45 27 -39 28 -46 34 -40 35 -47 0
-3 -15 -4 -22 5 -29 6 -36 12 -30 14 -44 -20 38 -21 45 27 -39 28 -46 34 -40 35 -47 0
-3 15 -4 -22 5 -29 6 -36 12 -30 14 -44 -20 38 -21 45 27 -39 28 -46 34 -40 35 -47 0
-3 15 4 -22 5 -29 6 -36 12 -30 14 -44 -20 38 -21 45 27 -39 28 -46 34 -40 35 -47 0
-3 -15 4 -22 5 -29 6 -36 12 -30 14 -44 -20 38 -21 45 27 -39 28 -46 34 -40 35 -47 0
3 -15 4 -22 5 -29 6 -36 12 -30 14 -44 -20 38 -21 45 27 -39 28 -46 34 -40 35 -47 0
-3 -15 4 -22 -5 29 6 -36 12 -30 14 -44 -20 38 -21 45 27 -39 28 -46 34 -40 35 -47 0
3 -15 4 -22 -5 29 6 -36 12 -30 14 -44 -20 38 -21 45 27 -39 28 -46 34 -40 35 -47 0
-3 15 4 -22 -5 29 6 -36 12 -30 14 -44 -20 38 -21 45 27 -39 28 -46 34 -40 35 -47 0
-3 15 -4 -22 -5 29 6 -36 12 -30 14 -44 -20 38 -21 45 27 -39 28 -46 34 -40 35 -47 0
-3 -15 -4 -22 -5 29 6 -36 12 -30 14 -44 -20 38 -21 45 27 -39 28 -46 34 -40 35 -47 0
3 -15 -4 -22 -5 29 6 -36 12 -30 14 -44 -20 38 -21 45 27 -39 28 -46 34 -40 35 -47 0
3 -15 -4 22 -5 29 6 -36 12 -30 14 -44 -20 38 -21 45 27 -39 28 -46 34 -40 35 -47 0
-3 -15 -4 22 -5 29 6 -36 12 -30 14 -44 -20 38 -21 45 27 -39 28 -46 34 -40 35 -47 0
-3 15 -4 22 -5 29 6 -36 12 -30 14 -44 -20 38 -21 45 27 -39 28 -46 34 -40 35 -47 0
-3 15 -4 22 -5 29 -6 36 12 -30 14 -44 -20 38 -21 45 27 -39 28 -46 34 -40 35 -47 0
-3 -15 -4 22 -5 29 -6 36 12 -30 14 -44 -20 38 -21 45 27 -39 28 -46 34 -40 35 -47 0
3 -15 -4 22 -5 29 -6 36 12 -30 14 -44 -20 38 -21 45 27 -39 28 -46 34 -40 35 -47 0
-3 -15 -4 -22 -5 29 -6 36 12 -30 14 -44 -20 38 -21 45 27 -39 28 -46 34 -40 35 -47 0
3 -15 -4 -22 -5 29 -6 36 12 -30 14 -44 -20 38 -21 45 27 -39 28 -46 34 -40 35 -47 0
-3 15 -4 -22 -5 29 -6 36 12 -30 14 -44 -20 38 -21 45 27 -39 28 -46 34 -40 35 -47 0
-3 15 4 -22 -5 29 -6 36 12 -30 14 -44 -20 38 -21 45 27 -39 28 -46 34 -40 35 -47 0
-3 -15 4 -22 -5 29 -6 36 12 -30 14 -44 -20 38 -21 45 27 -39 28 -46 34 -40 35 -47 0
3 -15 4 -22 -5 29 -6 36 12 -30 14 -44 -20 38 -21 45 27 -39 28 -46 34 -40 35 -47 0
3 -15 4 -22 5 -29 -6 36 12 -30 14 -44 -20 38 -21 45 27 -39 28 -46 34 -40 35 -47 0
-3 -15 4 -22 5 -29 -6 36 12 -30 14 -44 -20 38 -21 45 27 -39 28 -46 34 -40 35 -47 0
-3 15 4 -22 5 -29 -6 36 12 -30 14 -44 -20 38 -21 45 27 -39 28 -46 34 -40 35 -47 0
-3 15 -4 -22 5 -29 -6 36 12 -30 14 -44 -20 38 -21 45 27 -39 28 -46 34 -40 35 -47 0
-3 -15 -4 -22 5 -29 -6 36 12 -30 14 -44 -20 38 -21 45 27 -39 28 -46 34 -40 35 -47 0
3 -15 -4 -22 5 -29 -6 36 12 -30 14 -44 -20 38 -21 45 27 -39 28 -46 34 -40 35 -47 0
3 -15 -4 22 5 -29 -6 36 12 -30 14 -44 -20 38 -21 45 27 -39 28 -46 34 -40 35 -47 0
-3 -15 -4 22 5 -29 -6 36 12 -30 14 -44 -20 38 -21 45 27 -39 28 -46 34 -40 35 -47 0
-3 15 -4 22 5 -29 -6 36 12 -30 14 -44 -20 38 -21 45 27 -39 28 -46 34 -40 35 -47 0
-3 15 -4 22 5 -29 -6 36 -12 30 14 -44 -20 38 -21 45 27 -39 28 -46 34 -40 35 -47 0
-3 -15 -4 22 5 -29 -6 36 -12 30 14 -44 -20 38 -21 45 27 -39 28 -46 34 -40 35 -47 0
3 -15 -4 22 5 -29 -6 36 -12 30 14 -44 -20 38 -21 45 27 -39 28 -46 34 -40 35 -47 0
3 -15 -4 -22 5 -29 -6 36 -12 30 14 -44 -20 38 -21 45 27 -39 28 -46 34 -40 35 -47 0
-3 -15 -4 -22 5 -29 -6 36 -12 30 14 -44 -20 38 -21 45 27 -39 28 -46 34 -40 35 -47 0
-3 15 -4 -22 5 -29 -6 36 -12 30 14 -44 -20 38 -21 45 27 -39 28 -46 34 -40 35 -47 0
-3 15 4 -22 5 -29 -6 36 -12 30 14 -44 -20 38 -21 45 27 -39 28 -46 34 -40 35 -47 0
-3 -15 4 -22 5 -29 -6 36 -12 30 14 -44 -20 38 -21 45 27 -39 28 -46 34 -40 35 -47 0
3 -15 4 -22 5 -29 -6 36 -12 30 14 -44 -20 38 -21 45 27 -39 28 -46 34 -40 35 -47 0
3 -15 4 -22 -5 29 -6 36 -12 30 14 -44 -20 38 -21 45 27 -39 28 -46 34 -40 35 -47 0
-3 -15 4 -22 -5 29 -6 36 -12 30 14 -44 -20 38 -21 45 27 -39 28 -46 34 -40 35 -47 0
-3 15 4 -22 -5 29 -6 36 -12 30 14 -44 -20 38 -21 45 27 -39 28 -46 34 -40 35 -47 0
-3 15 -4 -22 -5 29 -6 36 -12 30 14 -44 -20 38 -21 45 27 -39 28 -46 34 -40 35 -47 0
-3 -15 -4 -22 -5 29 -6 36 -12 30 14 -44 -20 38 -21 45 27 -39 28 -46 34 -40 35 -47 0
3 -15 -4 -22 -5 29 -6 36 -12 30 14 -44 -20 38 -21 45 27 -39 28 -46 34 -40 35 -47 0
-3 -15 -4 22 -5 29 -6 36 -12 30 14 -44 -20 38 -21 45 27 -39 28 -46 34 -40 35 -47 0
3 -15 -4 22 -5 29 -6 36 -12 30 14 -44 -20 38 -21 45 27 -39 28 -46 34 -40 35 -47 0
-3 15 -4 22 -5 29 -6 36 -12 30 14 -44 -20 38 -21 45 27 -39 28 -46 34 -40 35 -47 0
-3 15 -4 22 -5 29 6 -36 -12 30 14 -44 -20 38 -21 45 27 -39 28 -46 34 -40 35 -47 0
-3 -15 -4 22 -5 29 6 -36 -12 30 14 -44 -20 38 -21 45 27 -39 28 -46 34 -40 35 -47 0
3 -15 -4 22 -5 29 6 -36 -12 30 14 -44 -20 38 -21 45 27 -39 28 -46 34 -40 35 -47 0
-3 -15 -4 -22 -5 29 6 -36 -12 30 14 -44 -20 38 -21 45 27 -39 28 -46 34 -40 35 -47 0
3 -15 -4 -22 -5 29 6 -36 -12 30 14 -44 -20 38 -21 45 27 -39 28 -46 34 -40 35 -47 0
-3 15 -4 -22 -5 29 6 -36 -12 30 14 -44 -20 38 -21 45 27 -39 28 -46 34 -40 35 -47 0
-3 15 4 -22 -5 29 6 -36 -12 30 14 -44 -20 38 -21 45 27 -39 28 -46 34 -40 35 -47 0
-3 -15 4 -22 -5 29 6 -36 -12 30 14 -44 -20 38 -21 45 27 -39 28 -46 34 -40 35 -47 0
3 -15 4 -22 -5 29 6 -36 -12 30 14 -44 -20 38 -21 45 27 -39 28 -46 34 -40 35 -47 0
-3 -15 4 -22 5 -29 6 -36 -12 30 14 -44 -20 38 -21 45 27 -39 28 -46 34 -40 35 -47 0
3 -15 4 -22 5 -29 6 -36 -12 30 14 -44 -20 38 -21 45 27 -39 28 -46 34 -40 35 -47 0
-3 15 4 -22 5 -29 6 -36 -12 30 14 -44 -20 38 -21 45 27 -39 28 -46 34 -40 35 -47 0
-3 15 -4 -22 5 -29 6 -36 -12 30 14 -44 -20 38 -21 45 27 -39 28 -46 34 -40 35 -47 0
-3 -15 -4 -22 5 -29 6 -36 -12 30 14 -44 -20 38 -21 45 27 -39 28 -46 34 -40 35 -47 0
3 -15 -4 -22 5 -29 6 -36 -12 30 14 -44 -20 38 -21 45 27 -39 28 -46 34 -40 35 -47 0
-3 -15 -4 22 5 -29 6 -36 -12 30 14 -44 -20 38 -21 45 27 -39 28 -46 34 -40 35 -47 0
3 -15 -4 22 5 -29 6 -36 -12 30 14 -44 -20 38 -21 45 27 -39 28 -46 34 -40 35 -47 0
-3 15 -4 22 5 -29 6 -36 -12 30 14 -44 -20 38 -21 45 27 -39 28 -46 34 -40 35 -47 0
-3 15 -4 22 5 -29 6 -36 -12 30 -14 44 -20 38 -21 45 27 -39 28 -46 34 -40 35 -47 0
-3 -15 -4 22 5 -29 6 -36 -12 30 -14 44 -20 38 -21 45 27 -39 28 -46 34 -40 35 -47 0
3 -15 -4 22 5 -29 6 -36 -12 30 -14 44 -20 38 -21 45 27 -39 28 -46 34 -40 35 -47 0
-3 -15 -4 -22 5 -29 6 -36 -12 30 -14 44 -20 38 -21 45 27 -39 28 -46 34 -40 35 -47 0
3 -15 -4 -22 5 -29 6 -36 -12 30 -14 44 -20 38 -21 45 27 -39 28 -46 34 -40 35 -47 0
-3 15 -4 -22 5 -29 6 -36 -12 30 -14 44 -20 38 -21 45 27 -39 28 -46 34 -40 35 -47 0
-3 15 4 -22 5 -29 6 -36 -12 30 -14 44 -20 38 -21 45 27 -39 28 -46 34 -40 35 -47 0
-3 -15 4 -22 5 -29 6 -36 -12 30 -14 44 -20 38 -21 45 27 -39 28 -46 34 -40 35 -47 0
3 -15 4 -22 5 -29 6 -36 -12 30 -14 44 -20 38 -21 45 27 -39 28 -46 34 -40 35 -47 0
3 -15 4 -22 -5 29 6 -36 -12 30 -14 44 -20 38 -21 45 27 -39 28 -46 34 -40 35 -47 0
-3 -15 4 -22 -5 29 6 -36 -12 30 -14 44 -20 38 -21 45 27 -39 28 -46 34 -40 35 -47 0
-3 15 4 -22 -5 29 6 -36 -12 30 -14 44 -20 38 -21 45 27 -39 28 -46 34 -40 35 -47 0
-3 15 -4 -22 -5 29 6 -36 -12 30 -14 44 -20 38 -21 45 27 -39 28 -46 34 -40 35 -47 0
-3 -15 -4 -22 -5 29 6 -36 -12 30 -14 44 -20 38 -21 45 27 -39 28 -46 34 -40 35 -47 0
3 -15 -4 -22 -5 29 6 -36 -12 30 -14 44 -20 38 -21 45 27 -39 28 -46 34 -40 35 -47 0
3 -15 -4 22 -5 29 6 -36 -12 30 -14 44 -20 38 -21 45 27 -39 28 -46 34 -40 35 -47 0
-3 -15 -4 22 -5 29 6 -36 -12 30 -14 44 -20 38 -21 45 27 -39 28 -46 34 -40 35 -47 0
-3 15 -4 22 -5 29 6 -36 -12 30 -14 44 -20 38 -21 45 27 -39 28 -46 34 -40 35 -47 0
-3 15 -4 22 -5 29 -6 36 -12 30 -14 44 -20 38 -21 45 27 -39 28 -46 34 -40 35 -47 0
-3 -15 -4 22 -5 29 -6 36 -12 30 -14 44 -20 38 -21 45 27 -39 28 -46 34 -40 35 -47 0
3 -15 -4 22 -5 29 -6 36 -12 30 -14 44 -20 38 -21 45 27 -39 28 -46 34 -40 35 -47 0
3 -15 -4 -22 -5 29 -6 36 -12 30 -14 44 -20 38 -21 45 27 -39 28 -46 34 -40 35 -47 0
-3 -15 -4 -22 -5 29 -6 36 -12 30 -14 44 -20 38 -21 45 27 -39 28 -46 34 -40 35 -47 0
-3 15 -4 -22 -5 29 -6 36 -12 30 -14 44 -20 38 -21 45 27 -39 28 -46 34 -40 35 -47 0
-3 15 4 -22 -5 29 -6 36 -12 30 -14 44 -20 38 -21 45 27 -39 28 -46 34 -40 35 -47 0
-3 -15 4 -22 -5 29 -6 36 -12 30 -14 44 -20 38 -21 45 27 -39 28 -46 34 -40 35 -47 0
3 -15 4 -22 -5 29 -6 36 -12 30 -14 44 -20 38 -21 45 27 -39 28 -46 34 -40 35 -47 0
-3 -15 4 -22 5 -29 -6 36 -12 30 -14 44 -20 38 -21 45 27 -39 28 -46 34 -40 35 -47 0
3 -15 4 -22 5 -29 -6 36 -12 30 -14 44 -20 38 -21 45 27 -39 28 -46 34 -40 35 -47 0
-3 15 4 -22 5 -29 -6 36 -12 30 -14 44 -20 38 -21 45 27 -39 28 -46 34 -40 35 -47 0
-3 15 -4 -22 5 -29 -6 36 -12 30 -14 44 -20 38 -21 45 27 -39 28 -46 34 -40 35 -47 0
-3 -15 -4 -22 5 -29 -6 36 -12 30 -14 44 -20 38 -21 45 27 -39 28 -46 34 -40 35 -47 0
3 -15 -4 -22 5 -29 -6 36 -12 30 -14 44 -20 38 -21 45 27 -39 28 -46 34 -40 35 -47 0
3 -15 -4 22 5 -29 -6 36 -12 30 -14 44 -20 38 -21 45 27 -39 28 -46 34 -40 35 -47 0
-3 -15 -4 22 5 -29 -6 36 -12 30 -14 44 -20 38 -21 45 27 -39 28 -46 34 -40 35 -47 0
-3 15 -4 22 5 -29 -6 36 -12 30 -14 44 -20 38 -21 45 27 -39 28 -46 34 -40 35 -47 0
-3 15 -4 22 5 -29 -6 36 12 -30 -14 44 -20 38 -21 45 27 -39 28 -46 34 -40 35 -47 0
-3 -15 -4 22 5 -29 -6 36 12 -30 -14 44 -20 38 -21 45 27 -39 28 -46 34 -40 35 -47 0
3 -15 -4 22 5 -29 -6 36 12 -30 -14 44 -20 38 -21 45 27 -39 28 -46 34 -40 35 -47 0
3 -15 -4 -22 5 -29 -6 36 12 -30 -14 44 -20 38 -21 45 27 -39 28 -46 34 -40 35 -47 0
-3 -15 -4 -22 5 -29 -6 36 12 -30 -14 44 -20 38 -21 45 27 -39 28 -46 34 -40 35 -47 0
-3 15 -4 -22 5 -29 -6 36 12 -30 -14 44 -20 38 -21 45 27 -39 28 -46 34 -40 35 -47 0
-3 15 4 -22 5 -29 -6 36 12 -30 -14 44 -20 38 -21 45 27 -39 28 -46 34 -40 35 -47 0
-3 -15 4 -22 5 -29 -6 36 12 -30 -14 44 -20 38 -21 45 27 -39 28 -46 34 -40 35 -47 0
3 -15 4 -22 5 -29 -6 36 12 -30 -14 44 -20 38 -21 45 27 -39 28 -46 34 -40 35 -47 0
3 -15 4 -22 -5 29 -6 36 12 -30 -14 44 -20 38 -21 45 27 -39 28 -46 34 -40 35 -47 0
-3 -15 4 -22 -5 29 -6 36 12 -30 -14 44 -20 38 -21 45 27 -39 28 -46 34 -40 35 -47 0
-3 15 4 -22 -5 29 -6 36 12 -30 -14 44 -20 38 -21 45 27 -39 28 -46 34 -40 35 -47 0
-3 15 -4 -22 -5 29 -6 36 12 -30 -14 44 -20 38 -21 45 27 -39 28 -46 34 -40 35 -47 0
-3 -15 -4 -22 -5 29 -6 36 12 -30 -14 44 -20 38 -21 45 27 -39 28 -46 34 -40 35 -47 0
3 -15 -4 -22 -5 29 -6 36 12 -30 -14 44 -20 38 -21 45 27 -39 28 -46 34 -40 35 -47 0
3 -15 -4 22 -5 29 -6 36 12 -30 -14 44 -20 38 -21 45 27 -39 28 -46 34 -40 35 -47 0
-3 -15 -4 22 -5 29 -6 36 12 -30 -14 44 -20 38 -21 45 27 -39 28 -46 34 -40 35 -47 0
-3 15 -4 22 -5 29 -6 36 12 -30 -14 44 -20 38 -21 45 27 -39 28 -46 34 -40 35 -47 0
-3 15 -4 22 -5 29 6 -36 12 -30 -14 44 -20 38 -21 45 27 -39 28 -46 34 -40 35 -47 0
-3 -15 -4 22 -5 29 6 -36 12 -30 -14 44 -20 38 -21 45 27 -39 28 -46 34 -40 35 -47 0
3 -15 -4 22 -5 29 6 -36 12 -30 -14 44 -20 38 -21 45 27 -39 28 -46 34 -40 35 -47 0
-3 -15 -4 -22 -5 29 6 -36 12 -30 -14 44 -20 38 -21 45 27 -39 28 -46 34 -40 35 -47 0
3 -15 -4 -22 -5 29 6 -36 12 -30 -14 44 -20 38 -21 45 27 -39 28 -46 34 -40 35 -47 0
-3 15 -4 -22 -5 29 6 -36 12 -30 -14 44 -20 38 -21 45 27 -39 28 -46 34 -40 35 -47 0
-3 15 4 -22 -5 29 6 -36 12 -30 -14 44 -20 38 -21 45 27 -39 28 -46 34 -40 35 -47 0
-3 -15 4 -22 -5 29 6 -36 12 -30 -14 44 -20 38 -21 45 27 -39 28 -46 34 -40 35 -47 0
3 -15 4 -22 -5 29 6 -36 12 -30 -14 44 -20 38 -21 45 27 -39 28 -46 34 -40 35 -47 0
-3 -15 4 -22 5 -29 6 -36 12 -30 -14 44 -20 38 -21 45 27 -39 28 -46 34 -40 35 -47 0
3 -15 4 -22 5 -29 6 -36 12 -30 -14 44 -20 38 -21 45 27 -39 28 -46 34 -40 35 -47 0
-3 15 4 -22 5 -29 6 -36 12 -30 -14 44 -20 38 -21 45 27 -39 28 -46 34 -40 35 -47 0
-3 15 -4 -22 5 -29 6 -36 12 -30 -14 44 -20 38 -21 45 27 -39 28 -46 34 -40 35 -47 0
-3 -15 -4 -22 5 -29 6 -36 12 -30 -14 44 -20 38 -21 45 27 -39 28 -46 34 -40 35 -47 0
3 -15 -4 -22 5 -29 6 -36 12 -30 -14 44 -20 38 -21 45 27 -39 28 -46 34 -40 35 -47 0
3 -15 -4 22 5 -29 6 -36 12 -30 -14 44 -20 38 -21 45 27 -39 28 -46 34 -40 35 -47 0
-3 -15 -4 22 5 -29 6 -36 12 -30 -14 44 -20 38 -21 45 27 -39 28 -46 34 -40 35 -47 0
-3 15 -4 22 5 -29 6 -36 12 -30 -14 44 -20 38 -21 45 27 -39 28 -46 34 -40 35 -47 0
-3 15 -4 22 5 -29 6 -36 12 -30 -14 44 20 -38 -21 45 27 -39 28 -46 34 -40 35 -47 0
-3 -15 -4 22 5 -29 6 -36 12 -30 -14 44 20 -38 -21 45 27 -39 28 -46 34 -40 35 -47 0
3 -15 -4 22 5 -29 6 -36 12 -30 -14 44 20 -38 -21 45 27 -39 28 -46 34 -40 35 -47 0
-3 -15 -4 -22 5 -29 6 -36 12 -30 -14 44 20 -38 -21 45 27 -39 28 -46 34 -40 35 -47 0
3 -15 -4 -22 5 -29 6 -36 12 -30 -14 44 20 -38 -21 45 27 -39 28 -46 34 -40 35 -47 0
-3 15 -4 -22 5 -29 6 -36 12 -30 -14 44 20 -38 -21 45 27 -39 28 -46 34 -40 35 -47 0
-3 15 4 -22 5 -29 6 -36 12 -30 -14 44 20 -38 -21 45 27 -39 28 -46 34 -40 35 -47 0
-3 -15 4 -22 5 -29 6 -36 12 -30 -14 44 20 -38 -21 45 27 -39 28 -46 34 -40 35 -47 0
3 -15 4 -22 5 -29 6 -36 12 -30 -14 44 20 -38 -21 45 27 -39 28 -46 34 -40 35 -47 0
3 -15 4 -22 -5 29 6 -36 12 -30 -14 44 20 -38 -21 45 27 -39 28 -46 34 -40 35 -47 0
-3 -15 4 -22 -5 29 6 -36 12 -30 -14 44 20 -38 -21 45 27 -39 28 -46 34 -40 35 -47 0
-3 15 4 -22 -5 29 6 -36 12 -30 -14 44 20 -38 -21 45 27 -39 28 -46 34 -40 35 -47 0
-3 15 -4 -22 -5 29 6 -36 12 -30 -14 44 20 -38 -21 45 27 -39 28 -46 34 -40 35 -47 0
-3 -15 -4 -22 -5 29 6 -36 12 -30 -14 44 20 -38 -21 45 27 -39 28 -46 34 -40 35 -47 0
3 -15 -4 -22 -5 29 6 -36 12 -30 -14 44 20 -38 -21 45 27 -39 28 -46 34 -40 35 -47 0
3 -15 -4 22 -5 29 6 -36 12 -30 -14 44 20 -38 -21 45 27 -39 28 -46 34 -40 35 -47 0
-3 -15 -4 22 -5 29 6 -36 12 -30 -14 44 20 -38 -21 45 27 -39 28 -46 34 -40 35 -47 0
-3 15 -4 22 -5 29 6 -36 12 -30 -14 44 20 -38 -21 45 27 -39 28 -46 34 -40 35 -47 0
-3 15 -4 22 -5 29 -6 36 12 -30 -14 44 20 -38 -21 45 27 -39 28 -46 34 -40 35 -47 0
-3 -15 -4 22 -5 29 -6 36 12 -30 -14 44 20 -38 -21 45 27 -39 28 -46 34 -40 35 -47 0
3 -15 -4 22 -5 29 -6 36 12 -30 -14 44 20 -38 -21 45 27 -39 28 -46 34 -40 35 -47 0
3 -15 -4 -22 -5 29 -6 36 12 -30 -14 44 20 -38 -21 45 27 -39 28 -46 34 -40 35 -47 0
-3 -15 -4 -22 -5 29 -6 36 12 -30 -14 44 20 -38 -21 45 27 -39 28 -46 34 -40 35 -47 0
-3 15 -4 -22 -5 29 -6 36 12 -30 -14 44 20 -38 -21 45 27 -39 28 -46 34 -40 35 -47 0
-3 15 4 -22 -5 29 -6 36 12 -30 -14 44 20 -38 -21 45 27 -39 28 -46 34 -40 35 -47 0
-3 -15 4 -22 -5 29 -6 36 12 -30 -14 44 20 -38 -21 45 27 -39 28 -46 34 -40 35 -47 0
3 -15 4 -22 -5 29 -6 36 12 -30 -14 44 20 -38 -21 45 27 -39 28 -46 34 -40 35 -47 0
-3 -15 4 -22 5 -29 -6 36 12 -30 -14 44 20 -38 -21 45 27 -39 28 -46 34 -40 35 -47 0
3 -15 4 -22 5 -29 -6 36 12 -30 -14 44 20 -38 -21 45 27 -39 28 -46 34 -40 35 -47 0
-3 15 4 -22 5 -29 -6 36 12 -30 -14 44 20 -38 -21 45 27 -39 28 -46 34 -40 35 -47 0
-3 15 -4 -22 5 -29 -6 36 12 -30 -14 44 20 -38 -21 45 27 -39 28 -46 34 -40 35 -47 0
-3 -15 -4 -22 5 -29 -6 36 12 -30 -14 44 20 -38 -21 45 27 -39 28 -46 34 -40 35 -47 0
3 -15 -4 -22 5 -29 -6 36 12 -30 -14 44 20 -38 -21 45 27 -39 28 -46 34 -40 35 -47 0
3 -15 -4 22 5 -29 -6 36 12 -30 -14 44 20 -38 -21 45 27 -39 28 -46 34 -40 35 -47 0
-3 -15 -4 22 5 -29 -6 36 12 -30 -14 44 20 -38 -21 45 27 -39 28 -46 34 -40 35 -47 0
-3 15 -4 22 5 -29 -6 36 12 -30 -14 44 20 -38 -21 45 27 -39 28 -46 34 -40 35 -47 0
-3 15 -4 22 5 -29 -6 36 -12 30 -14 44 20 -38 -21 45 27 -39 28 -46 34 -40 35 -47 0
-3 -15 -4 22 5 -29 -6 36 -12 30 -14 44 20 -38 -21 45 27 -39 28 -46 34 -40 35 -47 0
3 -15 -4 22 5 -29 -6 36 -12 30 -14 44 20 -38 -21 45 27 -39 28 -46 34 -40 35 -47 0
-3 -15 -4 -22 5 -29 -6 36 -12 30 -14 44 20 -38 -21 45 27 -39 28 -46 34 -40 35 -47 0
3 -15 -4 -22 5 -29 -6 36 -12 30 -14 44 20 -38 -21 45 27 -39 28 -46 34 -40 35 -47 0
-3 15 -4 -22 5 -29 -6 36 -12 30 -14 44 20 -38 -21 45 27 -39 28 -46 34 -40 35 -47 0
-3 15 4 -22 5 -29 -6 36 -12 30 -14 44 20 -38 -21 45 27 -39 28 -46 34 -40 35 -47 0
-3 -15 4 -22 5 -29 -6 36 -12 30 -14 44 20 -38 -21 45 27 -39 28 -46 34 -40 35 -47 0
3 -15 4 -22 5 -29 -6 36 -12 30 -14 44 20 -38 -21 45 27 -39 28 -46 34 -40 35 -47 0
3 -15 4 -22 -5 29 -6 36 -12 30 -14 44 20 -38 -21 45 27 -39 28 -46 34 -40 35 -47 0
-3 -15 4 -22 -5 29 -6 36 -12 30 -14 44 20 -38 -21 45 27 -39 28 -46 34 -40 35 -47 0
-3 15 4 -22 -5 29 -6 36 -12 30 -14 44 20 -38 -21 45 27 -39 28 -46 34 -40 35 -47 0
-3 15 -4 -22 -5 29 -6 36 -12 30 -14 44 20 -38 -21 45 27 -39 28 -46 34 -40 35 -47 0
-3 -15 -4 -22 -5 29 -6 36 -12 30 -14 44 20 -38 -21 45 27 -39 28 -46 34 -40 35 -47 0
3 -15 -4 -22 -5 29 -6 36 -12 30 -14 44 20 -38 -21 45 27 -39 28 -46 34 -40 35 -47 0
-3 -15 -4 22 -5 29 -6 36 -12 30 -14 44 20 -38 -21 45 27 -39 28 -46 34 -40 35 -47 0
3 -15 -4 22 -5 29 -6 36 -12 30 -14 44 20 -38 -21 45 27 -39 28 -46 34 -40 35 -47 0
-3 15 -4 22 -5 29 -6 36 -12 30 -14 44 20 -38 -21 45 27 -39 28 -46 34 -40 35 -47 0
-3 15 -4 22 -5 29 6 -36 -12 30 -14 44 20 -38 -21 45 27 -39 28 -46 34 -40 35 -47 0
-3 -15 -4 22 -5 29 6 -36 -12 30 -14 44 20 -38 -21 45 27 -39 28 -46 34 -40 35 -47 0
3 -15 -4 22 -5 29 6 -36 -12 30 -14 44 20 -38 -21 45 27 -39 28 -46 34 -40 35 -47 0
3 -15 -4 -22 -5 29 6 -36 -12 30 -14 44 20 -38 -21 45 27 -39 28 -46 34 -40 35 -47 0
-3 -15 -4 -22 -5 29 6 -36 -12 30 -14 44 20 -38 -21 45 27 -39 28 -46 34 -40 35 -47 0
-3 15 -4 -22 -5 29 6 -36 -12 30 -14 44 20 -38 -21 45 27 -39 28 -46 34 -40 35 -47 0
-3 15 4 -22 -5 29 6 -36 -12 30 -14 44 20 -38 -21 45 27 -39 28 -46 34 -40 35 -47 0
-3 -15 4 -22 -5 29 6 -36 -12 30 -14 44 20 -38 -21 45 27 -39 28 -46 34 -40 35 -47 0
3 -15 4 -22 -5 29 6 -36 -12 30 -14 44 20 -38 -21 45 27 -39 28 -46 34 -40 35 -47 0
-3 -15 4 -22 5 -29 6 -36 -12 30 -14 44 20 -38 -21 45 27 -39 28 -46 34 -40 35 -47 0
3 -15 4 -22 5 -29 6 -36 -12 30 -14 44 20 -38 -21 45 27 -39 28 -46 34 -40 35 -47 0
-3 15 4 -22 5 -29 6 -36 -12 30 -14 44 20 -38 -21 45 27 -39 28 -46 34 -40 35 -47 0
-3 15 -4 -22 5 -29 6 -36 -12 30 -14 44 20 -38 -21 45 27 -39 28 -46 34 -40 35 -47 0
-3 -15 -4 -22 5 -29 6 -36 -12 30 -14 44 20 -38 -21 45 27 -39 28 -46 34 -40 35 -47 0
3 -15 -4 -22 5 -29 6 -36 -12 30 -14 44 20 -38 -21 45 27 -39 28 -46 34 -40 35 -47 0
-3 -15 -4 22 5 -29 6 -36 -12 30 -14 44 20 -38 -21 45 27 -39 28 -46 34 -40 35 -47 0
3 -15 -4 22 5 -29 6 -36 -12 30 -14 44 20 -38 -21 45 27 -39 28 -46 34 -40 35 -47 0
-3 15 -4 22 5 -29 6 -36 -12 30 -14 44 20 -38 -21 45 27 -39 28 -46 34 -40 35 -47 0
-3 15 -4 22 5 -29 6 -36 -12 30 14 -44 20 -38 -21 45 27 -39 28 -46 34 -40 35 -47 0
-3 -15 -4 22 5 -29 6 -36 -12 30 14 -44 20 -38 -21 45 27 -39 28 -46 34 -40 35 -47 0
3 -15 -4 22 5 -29 6 -36 -12 30 14 -44 20 -38 -21 45 27 -39 28 -46 34 -40 35 -47 0
-3 -15 -4 -22 5 -29 6 -36 -12 30 14 -44 20 -38 -21 45 27 -39 28 -46 34 -40 35 -47 0
3 -15 -4 -22 5 -29 6 -36 -12 30 14 -44 20 -38 -21 45 27 -39 28 -46 34 -40 35 -47 0
-3 15 -4 -22 5 -29 6 -36 -12 30 14 -44 20 -38 -21 45 27 -39 28 -46 34 -40 35 -47 0
-3 15 4 -22 5 -29 6 -36 -12 30 14 -44 20 -38 -21 45 27 -39 28 -46 34 -40 35 -47 0
-3 -15 4 -22 5 -29 6 -36 -12 30 14 -44 20 -38 -21 45 27 -39 28 -46 34 -40 35 -47 0
3 -15 4 -22 5 -29 6 -36 -12 30 14 -44 20 -38 -21 45 27 -39 28 -46 34 -40 35 -47 0
3 -15 4 -22 -5 29 6 -36 -12 30 14 -44 20 -38 -21 45 27 -39 28 -46 34 -40 35 -47 0
-3 -15 4 -22 -5 29 6 -36 -12 30 14 -44 20 -38 -21 45 27 -39 28 -46 34 -40 35 -47 0
-3 15 4 -22 -5 29 6 -36 -12 30 14 -44 20 -38 -21 45 27 -39 28 -46 34 -40 35 -47 0
-3 15 -4 -22 -5 29 6 -36 -12 30 14 -44 20 -38 -21 45 27 -39 28 -46 34 -40 35 -47 0
-3 -15 -4 -22 -5 29 6 -36 -12 30 14 -44 20 -38 -21 45 27 -39 28 -46 34 -40 35 -47 0
3 -15 -4 -22 -5 29 6 -36 -12 30 14 -44 20 -38 -21 45 27 -39 28 -46 34 -40 35 -47 0
3 -15 -4 22 -5 29 6 -36 -12 30 14 -44 20 -38 -21 45 27 -39 28 -46 34 -40 35 -47 0
-3 -15 -4 22 -5 29 6 -36 -12 30 14 -44 20 -38 -21 45 27 -39 28 -46 34 -40 35 -47 0
-3 15 -4 22 -5 29 6 -36 -12 30 14 -44 20 -38 -21 45 27 -39 28 -46 34 -40 35 -47 0
-3 15 -4 22 -5 29 -6 36 -12 30 14 -44 20 -38 -21 45 27 -39 28 -46 34 -40 35 -47 0
-3 -15 -4 22 -5 29 -6 36 -12 30 14 -44 20 -38 -21 45 27 -39 28 -46 34 -40 35 -47 0
3 -15 -4 22 -5 29 -6 36 -12 30 14 -44 20 -38 -21 45 27 -39 28 -46 34 -40 35 -47 0
-3 -15 -4 -22 -5 29 -6 36 -12 30 14 -44 20 -38 -21 45 27 -39 28 -46 34 -40 35 -47 0
3 -15 -4 -22 -5 29 -6 36 -12 30 14 -44 20 -38 -21 45 27 -39 28 -46 34 -40 35 -47 0
-3 15 -4 -22 -5 29 -6 36 -12 30 14 -44 20 -38 -21 45 27 -39 28 -46 34 -40 35 -47 0
-3 15 4 -22 -5 29 -6 36 -12 30 14 -44 20 -38 -21 45 27 -39 28 -46 34 -40 35 -47 0
-3 -15 4 -22 -5 29 -6 36 -12 30 14 -44 20 -38 -21 45 27 -39 28 -46 34 -40 35 -47 0
3 -15 4 -22 -5 29 -6 36 -12 30 14 -44 20 -38 -21 45 27 -39 28 -46 34 -40 35 -47 0
3 -15 4 -22 5 -29 -6 36 -12 30 14 -44 20 -38 -21 45 27 -39 28 -46 34 -40 35 -47 0
-3 -15 4 -22 5 -29 -6 36 -12 30 14 -44 20 -38 -21 45 27 -39 28 -46 34 -40 35 -47 0
-3 15 4 -22 5 -29 -6 36 -12 30 14 -44 20 -38 -21 45 27 -39 28 -46 34 -40 35 -47 0
-3 15 -4 -22 5 -29 -6 36 -12 30 14 -44 20 -38 -21 45 27 -39 28 -46 34 -40 35 -47 0
-3 -15 -4 -22 5 -29 -6 36 -12 30 14 -44 20 -38 -21 45 27 -39 28 -46 34 -40 35 -47 0
3 -15 -4 -22 5 -29 -6 36 -12 30 14 -44 20 -38 -21 45 27 -39 28 -46 34 -40 35 -47 0
3 -15 -4 22 5 -29 -6 36 -12 30 14 -44 20 -38 -21 45 27 -39 28 -46 34 -40 35 -47 0
-3 -15 -4 22 5 -29 -6 36 -12 30 14 -44 20 -38 -21 45 27 -39 28 -46 34 -40 35 -47 0
-3 15 -4 22 5 -29 -6 36 -12 30 14 -44 20 -38 -21 45 27 -39 28 -46 34 -40 35 -47 0
-3 15 -4 22 5 -29 -6 36 12 -30 14 -44 20 -38 -21 45 27 -39 28 -46 34 -40 35 -47 0
-3 -15 -4 22 5 -29 -6 36 12 -30 14 -44 20 -38 -21 45 27 -39 28 -46 34 -40 35 -47 0
3 -15 -4 22 5 -29 -6 36 12 -30 14 -44 20 -38 -21 45 27 -39 28 -46 34 -40 35 -47 0
3 -15 -4 -22 5 -29 -6 36 12 -30 14 -44 20 -38 -21 45 27 -39 28 -46 34 -40 35 -47 0
-3 -15 -4 -22 5 -29 -6 36 12 -30 14 -44 20 -38 -21 45 27 -39 28 -46 34 -40 35 -47 0
-3 15 -4 -22 5 -29 -6 36 12 -30 14 -44 20 -38 -21 45 27 -39 28 -46 34 -40 35 -47 0
-3 15 4 -22 5 -29 -6 36 12 -30 14 -44 20 -38 -21 45 27 -39 28 -46 34 -40 35 -47 0
-3 -15 4 -22 5 -29 -6 36 12 -30 14 -44 20 -38 -21 45 27 -39 28 -46 34 -40 35 -47 0
3 -15 4 -22 5 -29 -6 36 12 -30 14 -44 20 -38 -21 45 27 -39 28 -46 34 -40 35 -47 0
3 -15 4 -22 -5 29 -6 36 12 -30 14 -44 20 -38 -21 45 27 -39 28 -46 34 -40 35 -47 0
-3 -15 4 -22 -5 29 -6 36 12 -30 14 -44 20 -38 -21 45 27 -39 28 -46 34 -40 35 -47 0
-3 15 4 -22 -5 29 -6 36 12 -30 14 -44 20 -38 -21 45 27 -39 28 -46 34 -40 35 -47 0
-3 15 -4 -22 -5 29 -6 36 12 -30 14 -44 20 -38 -21 45 27 -39 28 -46 34 -40 35 -47 0
-3 -15 -4 -22 -5 29 -6 36 12 -30 14 -44 20 -38 -21 45 27 -39 28 -46 34 -40 35 -47 0
3 -15 -4 -22 -5 29 -6 36 12 -30 14 -44 20 -38 -21 45 27 -39 28 -46 34 -40 35 -47 0
3 -15 -4 22 -5 29 -6 36 12 -30 14 -44 20 -38 -21 45 27 -39 28 -46 34 -40 35 -47 0
-3 -15 -4 22 -5 29 -6 36 12 -30 14 -44 20 -38 -21 45 27 -39 28 -46 34 -40 35 -47 0
-3 15 -4 22 -5 29 -6 36 12 -30 14 -44 20 -38 -21 45 27 -39 28 -46 34 -40 35 -47 0
-3 15 -4 22 -5 29 6 -36 12 -30 14 -44 20 -38 -21 45 27 -39 28 -46 34 -40 35 -47 0
-3 -15 -4 22 -5 29 6 -36 12 -30 14 -44 20 -38 -21 45 27 -39 28 -46 34 -40 35 -47 0
3 -15 -4 22 -5 29 6 -36 12 -30 14 -44 20 -38 -21 45 27 -39 28 -46 34 -40 35 -47 0
-3 -15 -4 -22 -5 29 6 -36 12 -30 14 -44 20 -38 -21 45 27 -39 28 -46 34 -40 35 -47 0
3 -15 -4 -22 -5 29 6 -36 12 -30 14 -44 20 -38 -21 45 27 -39 28 -46 34 -40 35 -47 0
-3 15 -4 -22 -5 29 6 -36 12 -30 14 -44 20 -38 -21 45 27 -39 28 -46 34 -40 35 -47 0
-3 15 4 -22 -5 29 6 -36 12 -30 14 -44 20 -38 -21 45 27 -39 28 -46 34 -40 35 -47 0
-3 -15 4 -22 -5 29 6 -36 12 -30 14 -44 20 -38 -21 45 27 -39 28 -46 34 -40 35 -47 0
3 -15 4 -22 -5 29 6 -36 12 -30 14 -44 20 -38 -21 45 27 -39 28 -46 34 -40 35 -47 0
-3 -15 4 -22 5 -29 6 -36 12 -30 14 -44 20 -38 -21 45 27 -39 28 -46 34 -40 35 -47 0
3 -15 4 -22 5 -29 6 -36 12 -30 14 -44 20 -38 -21 45 27 -39 28 -46 34 -40 35 -47 0
-3 15 4 -22 5 -29 6 -36 12 -30 14 -44 20 -38 -21 45 27 -39 28 -46 34 -40 35 -47 0
-3 15 -4 -22 5 -29 6 -36 12 -30 14 -44 20 -38 -21 45 27 -39 28 -46 34 -40 35 -47 0
-3 -15 -4 -22 5 -29 6 -36 12 -30 14 -44 20 -38 -21 45 27 -39 28 -46 34 -40 35 -47 0
3 -15 -4 -22 5 -29 6 -36 12 -30 14 -44 20 -38 -21 45 27 -39 28 -46 34 -40 35 -47 0
-3 -15 -4 22 5 -29 6 -36 12 -30 14 -44 20 -38 -21 45 27 -39 28 -46 34 -40 35 -47 0
3 -15 -4 22 5 -29 6 -36 12 -30 14 -44 20 -38 -21 45 27 -39 28 -46 34 -40 35 -47 0
-3 15 -4 22 5 -29 6 -36 12 -30 14 -44 20 -38 -21 45 27 -39 28 -46 34 -40 35 -47 0
-3 15 -4 22 5 -29 6 -36 12 -30 14 -44 20 -38 -21 45 -27 39 28 -46 34 -40 35 -47 0
-3 -15 -4 22 5 -29 6 -36 12 -30 14 -44 20 -38 -21 45 -27 39 28 -46 34 -40 35 -47 0
3 -15 -4 22 5 -29 6 -36 12 -30 14 -44 20 -38 -21 45 -27 39 28 -46 34 -40 35 -47 0
3 -15 -4 -22 5 -29 6 -36 12 -30 14 -44 20 -38 -21 45 -27 39 28 -46 34 -40 35 -47 0
-3 -15 -4 -22 5 -29 6 -36 12 -30 14 -44 20 -38 -21 45 -27 39 28 -46 34 -40 35 -47 0
-3 15 -4 -22 5 -29 6 -36 12 -30 14 -44 20 -38 -21 45 -27 39 28 -46 34 -40 35 -47 0
-3 15 4 -22 5 -29 6 -36 12 -30 14 -44 20 -38 -21 45 -27 39 28 -46 34 -40 35 -47 0
-3 -15 4 -22 5 -29 6 -36 12 -30 14 -44 20 -38 -21 45 -27 39 28 -46 34 -40 35 -47 0
3 -15 4 -22 5 -29 6 -36 12 -30 14 -44 20 -38 -21 45 -27 39 28 -46 34 -40 35 -47 0
-3 -15 4 -22 -5 29 6 -36 12 -30 14 -44 20 -38 -21 45 -27 39 28 -46 34 -40 35 -47 0
3 -15 4 -22 -5 29 6 -36 12 -30 14 -44 20 -38 -21 45 -27 39 28 -46 34 -40 35 -47 0
-3 15 4 -22 -5 29 6 -36 12 -30 14 -44 20 -38 -21 45 -27 39 28 -46 34 -40 35 -47 0
-3 15 -4 -22 -5 29 6 -36 12 -30 14 -44 20 -38 -21 45 -27 39 28 -46 34 -40 35 -47 0
-3 -15 -4 -22 -5 29 6 -36 12 -30 14 -44 20 -38 -21 45 -27 39 28 -46 34 -40 35 -47 0
3 -15 -4 -22 -5 29 6 -36 12 -30 14 -44 20 -38 -21 45 -27 39 28 -46 34 -40 35 -47 0
3 -15 -4 22 -5 29 6 -36 12 -30 14 -44 20 -38 -21 45 -27 39 28 -46 34 -40 35 -47 0
-3 -15 -4 22 -5 29 6 -36 12 -30 14 -44 20 -38 -21 45 -27 39 28 -46 34 -40 35 -47 0
-3 15 -4 22 -5 29 6 -36 12 -30 14 -44 20 -38 -21 45 -27 39 28 -46 34 -40 35 -47 0
-3 15 -4 22 -5 29 -6 36 12 -30 14 -44 20 -38 -21 45 -27 39 28 -46 34 -40 35 -47 0
-3 -15 -4 22 -5 29 -6 36 12 -30 14 -44 20 -38 -21 45 -27 39 28 -46 34 -40 35 -47 0
3 -15 -4 22 -5 29 -6 36 12 -30 14 -44 20 -38 -21 45 -27 39 28 -46 34 -40 35 -47 0
-3 -15 -4 -22 -5 29 -6 36 12 -30 14 -44 20 -38 -21 45 -27 39 28 -46 34 -40 35 -47 0
3 -15 -4 -22 -5 29 -6 36 12 -30 14 -44 20 -38 -21 45 -27 39 28 -46 34 -40 35 -47 0
-3 15 -4 -22 -5 29 -6 36 12 -30 14 -44 20 -38 -21 45 -27 39 28 -46 34 -40 35 -47 0
-3 15 4 -22 -5 29 -6 36 12 -30 14 -44 20 -38 -21 45 -27 39 28 -46 34 -40 35 -47 0
-3 -15 4 -22 -5 29 -6 36 12 -30 14 -44 20 -38 -21 45 -27 39 28 -46 34 -40 35 -47 0
3 -15 4 -22 -5 29 -6 36 12 -30 14 -44 20 -38 -21 45 -27 39 28 -46 34 -40 35 -47 0
3 -15 4 -22 5 -29 -6 36 12 -30 14 -44 20 -38 -21 45 -27 39 28 -46 34 -40 35 -47 0
-3 -15 4 -22 5 -29 -6 36 12 -30 14 -44 20 -38 -21 45 -27 39 28 -46 34 -40 35 -47 0
-3 15 4 -22 5 -29 -6 36 12 -30 14 -44 20 -38 -21 45 -27 39 28 -46 34 -40 35 -47 0
-3 15 -4 -22 5 -29 -6 36 12 -30 14 -44 20 -38 -21 45 -27 39 28 -46 34 -40 35 -47 0
-3 -15 -4 -22 5 -29 -6 36 12 -30 14 -44 20 -38 -21 45 -27 39 28 -46 34 -40 35 -47 0
3 -15 -4 -22 5 -29 -6 36 12 -30 14 -44 20 -38 -21 45 -27 39 28 -46 34 -40 35 -47 0
3 -15 -4 22 5 -29 -6 36 12 -30 14 -44 20 -38 -21 45 -27 39 28 -46 34 -40 35 -47 0
-3 -15 -4 22 5 -29 -6 36 12 -30 14 -44 20 -38 -21 45 -27 39 28 -46 34 -40 35 -47 0
-3 15 -4 22 5 -29 -6 36 12 -30 14 -44 20 -38 -21 45 -27 39 28 -46 34 -40 35 -47 0
-3 15 -4 22 5 -29 -6 36 -12 30 14 -44 20 -38 -21 45 -27 39 28 -46 34 -40 35 -47 0
-3 -15 -4 22 5 -29 -6 36 -12 30 14 -44 20 -38 -21 45 -27 39 28 -46 34 -40 35 -47 0
3 -15 -4 22 5 -29 -6 36 -12 30 14 -44 20 -38 -21 45 -27 39 28 -46 34 -40 35 -47 0
3 -15 -4 -22 5 -29 -6 36 -12 30 14 -44 20 -38 -21 45 -27 39 28 -46 34 -40 35 -47 0
-3 -15 -4 -22 5 -29 -6 36 -12 30 14 -44 20 -38 -21 45 -27 39 28 -46 34 -40 35 -47 0
-3 15 -4 -22 5 -29 -6 36 -12 30 14 -44 20 -38 -21 45 -27 39 28 -46 34 -40 35 -47 0
-3 15 4 -22 5 -29 -6 36 -12 30 14 -44 20 -38 -21 45 -27 39 28 -46 34 -40 35 -47 0
-3 -15 4 -22 5 -29 -6 36 -12 30 14 -44 20 -38 -21 45 -27 39 28 -46 34 -40 35 -47 0
3 -15 4 -22 5 -29 -6 36 -12 30 14 -44 20 -38 -21 45 -27 39 28 -46 34 -40 35 -47 0
3 -15 4 -22 -5 29 -6 36 -12 30 14 -44 20 -38 -21 45 -27 39 28 -46 34 -40 35 -47 0
-3 -15 4 -22 -5 29 -6 36 -12 30 14 -44 20 -38 -21 45 -27 39 28 -46 34 -40 35 -47 0
-3 15 4 -22 -5 29 -6 36 -12 30 14 -44 20 -38 -21 45 -27 39 28 -46 34 -40 35 -47 0
-3 15 -4 -22 -5 29 -6 36 -12 30 14 -44 20 -38 -21 45 -27 39 28 -46 34 -40 35 -47 0
-3 -15 -4 -22 -5 29 -6 36 -12 30 14 -44 20 -38 -21 45 -27 39 28 -46 34 -40 35 -47 0
3 -15 -4 -22 -5 29 -6 36 -12 30 14 -44 20 -38 -21 45 -27 39 28 -46 34 -40 35 -47 0
-3 -15 -4 22 -5 29 -6 36 -12 30 14 -44 20 -38 -21 45 -27 39 28 -46 34 -40 35 -47 0
3 -15 -4 22 -5 29 -6 36 -12 30 14 -44 20 -38 -21 45 -27 39 28 -46 34 -40 35 -47 0
-3 15 -4 22 -5 29 -6 36 -12 30 14 -44 20 -38 -21 45 -27 39 28 -46 34 -40 35 -47 0
-3 15 -4 22 -5 29 6 -36 -12 30 14 -44 20 -38 -21 45 -27 39 28 -46 34 -40 35 -47 0
-3 -15 -4 22 -5 29 6 -36 -12 30 14 -44 20 -38 -21 45 -27 39 28 -46 34 -40 35 -47 0
3 -15 -4 22 -5 29 6 -36 -12 30 14 -44 20 -38 -21 45 -27 39 28 -46 34 -40 35 -47 0
-3 -15 -4 -22 -5 29 6 -36 -12 30 14 -44 20 -38 -21 45 -27 39 28 -46 34 -40 35 -47 0
3 -15 -4 -22 -5 29 6 -36 -12 30 14 -44 20 -38 -21 45 -27 39 28 -46 34 -40 35 -47 0
-3 15 -4 -22 -5 29 6 -36 -12 30 14 -44 20 -38 -21 45 -27 39 28 -46 34 -40 35 -47 0
-3 15 4 -22 -5 29 6 -36 -12 30 14 -44 20 -38 -21 45 -27 39 28 -46 34 -40 35 -47 0
-3 -15 4 -22 -5 29 6 -36 -12 30 14 -44 20 -38 -21 45 -27 39 28 -46 34 -40 35 -47 0
3 -15 4 -22 -5 29 6 -36 -12 30 14 -44 20 -38 -21 45 -27 39 28 -46 34 -40 35 -47 0
-3 -15 4 -22 5 -29 6 -36 -12 30 14 -44 20 -38 -21 45 -27 39 28 -46 34 -40 35 -47 0
3 -15 4 -22 5 -29 6 -36 -12 30 14 -44 20 -38 -21 45 -27 39 28 -46 34 -40 35 -47 0
-3 15 4 -22 5 -29 6 -36 -12 30 14 -44 20 -38 -21 45 -27 39 28 -46 34 -40 35 -47 0
-3 15 -4 -22 5 -29 6 -36 -12 30 14 -44 20 -38 -21 45 -27 39 28 -46 34 -40 35 -47 0
-3 -15 -4 -22 5 -29 6 -36 -12 30 14 -44 20 -38 -21 45 -27 39 28 -46 34 -40 35 -47 0
3 -15 -4 -22 5 -29 6 -36 -12 30 14 -44 20 -38 -21 45 -27 39 28 -46 34 -40 35 -47 0
-3 -15 -4 22 5 -29 6 -36 -12 30 14 -44 20 -38 -21 45 -27 39 28 -46 34 -40 35 -47 0
3 -15 -4 22 5 -29 6 -36 -12 30 14 -44 20 -38 -21 45 -27 39 28 -46 34 -40 35 -47 0
-3 15 -4 22 5 -29 6 -36 -12 30 14 -44 20 -38 -21 45 -27 39 28 -46 34 -40 35 -47 0
-3 15 -4 22 5 -29 6 -36 -12 30 -14 44 20 -38 -21 45 -27 39 28 -46 34 -40 35 -47 0
-3 -15 -4 22 5 -29 6 -36 -12 30 -14 44 20 -38 -21 45 -27 39 28 -46 34 -40 35 -47 0
3 -15 -4 22 5 -29 6 -36 -12 30 -14 44 20 -38 -21 45 -27 39 28 -46 34 -40 35 -47 0
-3 -15 -4 -22 5 -29 6 -36 -12 30 -14 44 20 -38 -21 45 -27 39 28 -46 34 -40 35 -47 0
3 -15 -4 -22 5 -29 6 -36 -12 30 -14 44 20 -38 -21 45 -27 39 28 -46 34 -40 35 -47 0
-3 15 -4 -22 5 -29 6 -36 -12 30 -14 44 20 -38 -21 45 -27 39 28 -46 34 -40 35 -47 0
-3 15 4 -22 5 -29 6 -36 -12 30 -14 44 20 -38 -21 45 -27 39 28 -46 34 -40 35 -47 0
-3 -15 4 -22 5 -29 6 -36 -12 30 -14 44 20 -38 -21 45 -27 39 28 -46 34 -40 35 -47 0
3 -15 4 -22 5 -29 6 -36 -12 30 -14 44 20 -38 -21 45 -27 39 28 -46 34 -40 35 -47 0
3 -15 4 -22 -5 29 6 -36 -12 30 -14 44 20 -38 -21 45 -27 39 28 -46 34 -40 35 -47 0
-3 -15 4 -22 -5 29 6 -36 -12 30 -14 44 20 -38 -21 45 -27 39 28 -46 34 -40 35 -47 0
-3 15 4 -22 -5 29 6 -36 -12 30 -14 44 20 -38 -21 45 -27 39 28 -46 34 -40 35 -47 0
-3 15 -4 -22 -5 29 6 -36 -12 30 -14 44 20 -38 -21 45 -27 39 28 -46 34 -40 35 -47 0
-3 -15 -4 -22 -5 29 6 -36 -12 30 -14 44 20 -38 -21 45 -27 39 28 -46 34 -40 35 -47 0
3 -15 -4 -22 -5 29 6 -36 -12 30 -14 44 20 -38 -21 45 -27 39 28 -46 34 -40 35 -47 0
3 -15 -4 22 -5 29 6 -36 -12 30 -14 44 20 -38 -21 45 -27 39 28 -46 34 -40 35 -47 0
-3 -15 -4 22 -5 29 6 -36 -12 30 -14 44 20 -38 -21 45 -27 39 28 -46 34 -40 35 -47 0
-3 15 -4 22 -5 29 6 -36 -12 30 -14 44 20 -38 -21 45 -27 39 28 -46 34 -40 35 -47 0
-3 15 -4 22 -5 29 -6 36 -12 30 -14 44 20 -38 -21 45 -27 39 28 -46 34 -40 35 -47 0
-3 -15 -4 22 -5 29 -6 36 -12 30 -14 44 20 -38 -21 45 -27 39 28 -46 34 -40 35 -47 0
3 -15 -4 22 -5 29 -6 36 -12 30 -14 44 20 -38 -21 45 -27 39 28 -46 34 -40 35 -47 0
3 -15 -4 -22 -5 29 -6 36 -12 30 -14 44 20 -38 -21 45 -27 39 28 -46 34 -40 35 -47 0
-3 -15 -4 -22 -5 29 -6 36 -12 30 -14 44 20 -38 -21 45 -27 39 28 -46 34 -40 35 -47 0
-3 15 -4 -22 -5 29 -6 36 -12 30 -14 44 20 -38 -21 45 -27 39 28 -46 34 -40 35 -47 0
-3 15 4 -22 -5 29 -6 36 -12 30 -14 44 20 -38 -21 45 -27 39 28 -46 34 -40 35 -47 0
-3 -15 4 -22 -5 29 -6 36 -12 30 -14 44 20 -38 -21 45 -27 39 28 -46 34 -40 35 -47 0
3 -15 4 -22 -5 29 -6 36 -12 30 -14 44 20 -38 -21 45 -27 39 28 -46 34 -40 35 -47 0
-3 -15 4 -22 5 -29 -6 36 -12 30 -14 44 20 -38 -21 45 -27 39 28 -46 34 -40 35 -47 0
3 -15 4 -22 5 -29 -6 36 -12 30 -14 44 20 -38 -21 45 -27 39 28 -46 34 -40 35 -47 0
-3 15 4 -22 5 -29 -6 36 -12 30 -14 44 20 -38 -21 45 -27 39 28 -46 34 -40 35 -47 0
-3 15 -4 -22 5 -29 -6 36 -12 30 -14 44 20 -38 -21 45 -27 39 28 -46 34 -40 35 -47 0
-3 -15 -4 -22 5 -29 -6 36 -12 30 -14 44 20 -38 -21 45 -27 39 28 -46 34 -40 35 -47 0
3 -15 -4 -22 5 -29 -6 36 -12 30 -14 44 20 -38 -21 45 -27 39 28 -46 34 -40 35 -47 0
3 -15 -4 22 5 -29 -6 36 -12 30 -14 44 20 -38 -21 45 -27 39 28 -46 34 -40 35 -47 0
-3 -15 -4 22 5 -29 -6 36 -12 30 -14 44 20 -38 -21 45 -27 39 28 -46 34 -40 35 -47 0
-3 15 -4 22 5 -29 -6 36 -12 30 -14 44 20 -38 -21 45 -27 39 28 -46 34 -40 35 -47 0
-3 15 -4 22 5 -29 -6 36 12 -30 -14 44 20 -38 -21 45 -27 39 28 -46 34 -40 35 -47 0
-3 -15 -4 22 5 -29 -6 36 12 -30 -14 44 20 -38 -21 45 -27 39 28 -46 34 -40 35 -47 0
3 -15 -4 22 5 -29 -6 36 12 -30 -14 44 20 -38 -21 45 -27 39 28 -46 34 -40 35 -47 0
3 -15 -4 -22 5 -29 -6 36 12 -30 -14 44 20 -38 -21 45 -27 39 28 -46 34 -40 35 -47 0
-3 -15 -4 -22 5 -29 -6 36 12 -30 -14 44 20 -38 -21 45 -27 39 28 -46 34 -40 35 -47 0
-3 15 -4 -22 5 -29 -6 36 12 -30 -14 44 20 -38 -21 45 -27 39 28 -46 34 -40 35 -47 0
-3 15 4 -22 5 -29 -6 36 12 -30 -14 44 20 -38 -21 45 -27 39 28 -46 34 -40 35 -47 0
-3 -15 4 -22 5 -29 -6 36 12 -30 -14 44 20 -38 -21 45 -27 39 28 -46 34 -40 35 -47 0
3 -15 4 -22 5 -29 -6 36 12 -30 -14 44 20 -38 -21 45 -27 39 28 -46 34 -40 35 -47 0
3 -15 4 -22 -5 29 -6 36 12 -30 -14 44 20 -38 -21 45 -27 39 28 -46 34 -40 35 -47 0
-3 -15 4 -22 -5 29 -6 36 12 -30 -14 44 20 -38 -21 45 -27 39 28 -46 34 -40 35 -47 0
-3 15 4 -22 -5 29 -6 36 12 -30 -14 44 20 -38 -21 45 -27 39 28 -46 34 -40 35 -47 0
-3 15 -4 -22 -5 29 -6 36 12 -30 -14 44 20 -38 -21 45 -27 39 28 -46 34 -40 35 -47 0
-3 -15 -4 -22 -5 29 -6 36 12 -30 -14 44 20 -38 -21 45 -27 39 28 -46 34 -40 35 -47 0
3 -15 -4 -22 -5 29 -6 36 12 -30 -14 44 20 -38 -21 45 -27 39 28 -46 34 -40 35 -47 0
3 -15 -4 22 -5 29 -6 36 12 -30 -14 44 20 -38 -21 45 -27 39 28 -46 34 -40 35 -47 0
-3 -15 -4 22 -5 29 -6 36 12 -30 -14 44 20 -38 -21 45 -27 39 28 -46 34 -40 35 -47 0
-3 15 -4 22 -5 29 -6 36 12 -30 -14 44 20 -38 -21 45 -27 39 28 -46 34 -40 35 -47 0
-3 15 -4 22 -5 29 6 -36 12 -30 -14 44 20 -38 -21 45 -27 39 28 -46 34 -40 35 -47 0
-3 -15 -4 22 -5 29 6 -36 12 -30 -14 44 20 -38 -21 45 -27 39 28 -46 34 -40 35 -47 0
3 -15 -4 22 -5 29 6 -36 12 -30 -14 44 20 -38 -21 45 -27 39 28 -46 34 -40 35 -47 0
-3 -15 -4 -22 -5 29 6 -36 12 -30 -14 44 20 -38 -21 45 -27 39 28 -46 34 -40 35 -47 0
3 -15 -4 -22 -5 29 6 -36 12 -30 -14 44 20 -38 -21 45 -27 39 28 -46 34 -40 35 -47 0
-3 15 -4 -22 -5 29 6 -36 12 -30 -14 44 20 -38 -21 45 -27 39 28 -46 34 -40 35 -47 0
-3 15 4 -22 -5 29 6 -36 12 -30 -14 44 20 -38 -21 45 -27 39 28 -46 34 -40 35 -47 0
-3 -15 4 -22 -5 29 6 -36 12 -30 -14 44 20 -38 -21 45 -27 39 28 -46 34 -40 35 -47 0
3 -15 4 -22 -5 29 6 -36 12 -30 -14 44 20 -38 -21 45 -27 39 28 -46 34 -40 35 -47 0
-3 -15 4 -22 5 -29 6 -36 12 -30 -14 44 20 -38 -21 45 -27 39 28 -46 34 -40 35 -47 0
3 -15 4 -22 5 -29 6 -36 12 -30 -14 44 20 -38 -21 45 -27 39 28 -46 34 -40 35 -47 0
-3 15 4 -22 5 -29 6 -36 12 -30 -14 44 20 -38 -21 45 -27 39 28 -46 34 -40 35 -47 0
-3 15 -4 -22 5 -29 6 -36 12 -30 -14 44 20 -38 -21 45 -27 39 28 -46 34 -40 35 -47 0
-3 -15 -4 -22 5 -29 6 -36 12 -30 -14 44 20 -38 -21 45 -27 39 28 -46 34 -40 35 -47 0
3 -15 -4 -22 5 -29 6 -36 12 -30 -14 44 20 -38 -21 45 -27 39 28 -46 34 -40 35 -47 0
3 -15 -4 22 5 -29 6 -36 12 -30 -14 44 20 -38 -21 45 -27 39 28 -46 34 -40 35 -47 0
-3 -15 -4 22 5 -29 6 -36 12 -30 -14 44 20 -38 -21 45 -27 39 28 -46 34 -40 35 -47 0
-3 15 -4 22 5 -29 6 -36 12 -30 -14 44 20 -38 -21 45 -27 39 28 -46 34 -40 35 -47 0
-3 15 -4 22 5 -29 6 -36 12 -30 -14 44 -20 38 -21 45 -27 39 28 -46 34 -40 35 -47 0
-3 -15 -4 22 5 -29 6 -36 12 -30 -14 44 -20 38 -21 45 -27 39 28 -46 34 -40 35 -47 0
3 -15 -4 22 5 -29 6 -36 12 -30 -14 44 -20 38 -21 45 -27 39 28 -46 34 -40 35 -47 0
-3 -15 -4 -22 5 -29 6 -36 12 -30 -14 44 -20 38 -21 45 -27 39 28 -46 34 -40 35 -47 0
3 -15 -4 -22 5 -29 6 -36 12 -30 -14 44 -20 38 -21 45 -27 39 28 -46 34 -40 35 -47 0
-3 15 -4 -22 5 -29 6 -36 12 -30 -14 44 -20 38 -21 45 -27 39 28 -46 34 -40 35 -47 0
-3 15 4 -22 5 -29 6 -36 12 -30 -14 44 -20 38 -21 45 -27 39 28 -46 34 -40 35 -47 0
-3 -15 4 -22 5 -29 6 -36 12 -30 -14 44 -20 38 -21 45 -27 39 28 -46 34 -40 35 -47 0
3 -15 4 -22 5 -29 6 -36 12 -30 -14 44 -20 38 -21 45 -27 39 28 -46 34 -40 35 -47 0
3 -15 4 -22 -5 29 6 -36 12 -30 -14 44 -20 38 -21 45 -27 39 28 -46 34 -40 35 -47 0
-3 -15 4 -22 -5 29 6 -36 12 -30 -14 44 -20 38 -21 45 -27 39 28 -46 34 -40 35 -47 0
-3 15 4 -22 -5 29 6 -36 12 -30 -14 44 -20 38 -21 45 -27 39 28 -46 34 -40 35 -47 0
-3 15 -4 -22 -5 29 6 -36 12 -30 -14 44 -20 38 -21 45 -27 39 28 -46 34 -40 35 -47 0
-3 -15 -4 -22 -5 29 6 -36 12 -30 -14 44 -20 38 -21 45 -27 39 28 -46 34 -40 35 -47 0
3 -15 -4 -22 -5 29 6 -36 12 -30 -14 44 -20 38 -21 45 -27 39 28 -46 34 -40 35 -47 0
3 -15 -4 22 -5 29 6 -36 12 -30 -14 44 -20 38 -21 45 -27 39 28 -46 34 -40 35 -47 0
-3 -15 -4 22 -5 29 6 -36 12 -30 -14 44 -20 38 -21 45 -27 39 28 -46 34 -40 35 -47 0
-3 15 -4 22 -5 29 6 -36 12 -30 -14 44 -20 38 -21 45 -27 39 28 -46 34 -40 35 -47 0
-3 15 -4 22 -5 29 -6 36 12 -30 -14 44 -20 38 -21 45 -27 39 28 -46 34 -40 35 -47 0
-3 -15 -4 22 -5 29 -6 36 12 -30 -14 44 -20 38 -21 45 -27 39 28 -46 34 -40 35 -47 0
3 -15 -4 22 -5 29 -6 36 12 -30 -14 44 -20 38 -21 45 -27 39 28 -46 34 -40 35 -47 0
3 -15 -4 -22 -5 29 -6 36 12 -30 -14 44 -20 38 -21 45 -27 39 28 -46 34 -40 35 -47 0
-3 -15 -4 -22 -5 29 -6 36 12 -30 -14 44 -20 38 -21 45 -27 39 28 -46 34 -40 35 -47 0
-3 15 -4 -22 -5 29 -6 36 12 -30 -14 44 -20 38 -21 45 -27 39 28 -46 34 -40 35 -47 0
-3 15 4 -22 -5 29 -6 36 12 -30 -14 44 -20 38 -21 45 -27 39 28 -46 34 -40 35 -47 0
-3 -15 4 -22 -5 29 -6 36 12 -30 -14 44 -20 38 -21 45 -27 39 28 -46 34 -40 35 -47 0
3 -15 4 -22 -5 29 -6 36 12 -30 -14 44 -20 38 -21 45 -27 39 28 -46 34 -40 35 -47 0
-3 -15 4 -22 5 -29 -6 36 12 -30 -14 44 -20 38 -21 45 -27 39 28 -46 34 -40 35 -47 0
3 -15 4 -22 5 -29 -6 36 12 -30 -14 44 -20 38 -21 45 -27 39 28 -46 34 -40 35 -47 0
-3 15 4 -22 5 -29 -6 36 12 -30 -14 44 -20 38 -21 45 -27 39 28 -46 34 -40 35 -47 0
-3 15 -4 -22 5 -29 -6 36 12 -30 -14 44 -20 38 -21 45 -27 39 28 -46 34 -40 35 -47 0
-3 -15 -4 -22 5 -29 -6 36 12 -30 -14 44 -20 38 -21 45 -27 39 28 -46 34 -40 35 -47 0
3 -15 -4 -22 5 -29 -6 36 12 -30 -14 44 -20 38 -21 45 -27 39 28 -46 34 -40 35 -47 0
-3 15 -4 22 5 -29 -6 36 12 -30 -14 44 -20 38 -21 45 -27 39 28 -46 34 -40 35 -47 0
-3 -15 -4 22 5 -29 -6 36 12 -30 -14 44 -20 38 -21 45 -27 39 28 -46 34 -40 35 -47 0
3 -15 -4 22 5 -29 -6 36 12 -30 -14 44 -20 38 -21 45 -27 39 28 -46 34 -40 35 -47 0
-3 15 -4 -22 5 -29 -6 36 -12 30 -14 44 -20 38 -21 45 -27 39 28 -46 34 -40 35 -47 0
-3 -15 -4 -22 5 -29 -6 36 -12 30 -14 44 -20 38 -21 45 -27 39 28 -46 34 -40 35 -47 0
3 -15 -4 -22 5 -29 -6 36 -12 30 -14 44 -20 38 -21 45 -27 39 28 -46 34 -40 35 -47 0
-3 15 4 -22 5 -29 -6 36 -12 30 -14 44 -20 38 -21 45 -27 39 28 -46 34 -40 35 -47 0
-3 -15 4 -22 5 -29 -6 36 -12 30 -14 44 -20 38 -21 45 -27 39 28 -46 34 -40 35 -47 0
3 -15 4 -22 5 -29 -6 36 -12 30 -14 44 -20 38 -21 45 -27 39 28 -46 34 -40 35 -47 0
-3 15 -4 22 5 -29 -6 36 -12 30 -14 44 -20 38 -21 45 -27 39 28 -46 34 -40 35 -47 0
-3 -15 -4 22 5 -29 -6 36 -12 30 -14 44 -20 38 -21 45 -27 39 28 -46 34 -40 35 -47 0
3 -15 -4 22 5 -29 -6 36 -12 30 -14 44 -20 38 -21 45 -27 39 28 -46 34 -40 35 -47 0
-3 15 -4 -22 -5 29 -6 36 -12 30 -14 44 -20 38 -21 45 -27 39 28 -46 34 -40 35 -47 0
-3 -15 -4 -22 -5 29 -6 36 -12 30 -14 44 -20 38 -21 45 -27 39 28 -46 34 -40 35 -47 0
3 -15 -4 -22 -5 29 -6 36 -12 30 -14 44 -20 38 -21 45 -27 39 28 -46 34 -40 35 -47 0
-3 15 4 -22 -5 29 -6 36 -12 30 -14 44 -20 38 -21 45 -27 39 28 -46 34 -40 35 -47 0
-3 -15 4 -22 -5 29 -6 36 -12 30 -14 44 -20 38 -21 45 -27 39 28 -46 34 -40 35 -47 0
3 -15 4 -22 -5 29 -6 36 -12 30 -14 44 -20 38 -21 45 -27 39 28 -46 34 -40 35 -47 0
-3 15 -4 22 -5 29 -6 36 -12 30 -14 44 -20 38 -21 45 -27 39 28 -46 34 -40 35 -47 0
-3 -15 -4 22 -5 29 -6 36 -12 30 -14 44 -20 38 -21 45 -27 39 28 -46 34 -40 35 -47 0
3 -15 -4 22 -5 29 -6 36 -12 30 -14 44 -20 38 -21 45 -27 39 28 -46 34 -40 35 -47 0
-3 15 -4 -22 5 -29 6 -36 -12 30 -14 44 -20 38 -21 45 -27 39 28 -46 34 -40 35 -47 0
-3 -15 -4 -22 5 -29 6 -36 -12 30 -14 44 -20 38 -21 45 -27 39 28 -46 34 -40 35 -47 0
3 -15 -4 -22 5 -29 6 -36 -12 30 -14 44 -20 38 -21 45 -27 39 28 -46 34 -40 35 -47 0
-3 15 4 -22 5 -29 6 -36 -12 30 -14 44 -20 38 -21 45 -27 39 28 -46 34 -40 35 -47 0
-3 -15 4 -22 5 -29 6 -36 -12 30 -14 44 -20 38 -21 45 -27 39 28 -46 34 -40 35 -47 0
3 -15 4 -22 5 -29 6 -36 -12 30 -14 44 -20 38 -21 45 -27 39 28 -46 34 -40 35 -47 0
-3 15 -4 22 5 -29 6 -36 -12 30 -14 44 -20 38 -21 45 -27 39 28 -46 34 -40 35 -47 0
-3 -15 -4 22 5 -29 6 -36 -12 30 -14 44 -20 38 -21 45 -27 39 28 -46 34 -40 35 -47 0
3 -15 -4 22 5 -29 6 -36 -12 30 -14 44 -20 38 -21 45 -27 39 28 -46 34 -40 35 -47 0
-3 15 -4 -22 -5 29 6 -36 -12 30 -14 44 -20 38 -21 45 -27 39 28 -46 34 -40 35 -47 0
-3 -15 -4 -22 -5 29 6 -36 -12 30 -14 44 -20 38 -21 45 -27 39 28 -46 34 -40 35 -47 0
3 -15 -4 -22 -5 29 6 -36 -12 30 -14 44 -20 38 -21 45 -27 39 28 -46 34 -40 35 -47 0
-3 15 4 -22 -5 29 6 -36 -12 30 -14 44 -20 38 -21 45 -27 39 28 -46 34 -40 35 -47 0
-3 -15 4 -22 -5 29 6 -36 -12 30 -14 44 -20 38 -21 45 -27 39 28 -46 34 -40 35 -47 0
3 -15 4 -22 -5 29 6 -36 -12 30 -14 44 -20 38 -21 45 -27 39 28 -46 34 -40 35 -47 0
-3 15 -4 22 -5 29 6 -36 -12 30 -14 44 -20 38 -21 45 -27 39 28 -46 34 -40 35 -47 0
-3 -15 -4 22 -5 29 6 -36 -12 30 -14 44 -20 38 -21 45 -27 39 28 -46 34 -40 35 -47 0
3 -15 -4 22 -5 29 6 -36 -12 30 -14 44 -20 38 -21 45 -27 39 28 -46 34 -40 35 -47 0
-3 15 -4 -22 5 -29 -6 36 12 -30 14 -44 -20 38 -21 45 -27 39 28 -46 34 -40 35 -47 0
-3 -15 -4 -22 5 -29 -6 36 12 -30 14 -44 -20 38 -21 45 -27 39 28 -46 34 -40 35 -47 0
3 -15 -4 -22 5 -29 -6 36 12 -30 14 -44 -20 38 -21 45 -27 39 28 -46 34 -40 35 -47 0
-3 15 4 -22 5 -29 -6 36 12 -30 14 -44 -20 38 -21 45 -27 39 28 -46 34 -40 35 -47 0
-3 -15 4 -22 5 -29 -6 36 12 -30 14 -44 -20 38 -21 45 -27 39 28 -46 34 -40 35 -47 0
3 -15 4 -22 5 -29 -6 36 12 -30 14 -44 -20 38 -21 45 -27 39 28 -46 34 -40 35 -47 0
-3 15 -4 22 5 -29 -6 36 12 -30 14 -44 -20 38 -21 45 -27 39 28 -46 34 -40 35 -47 0
-3 -15 -4 22 5 -29 -6 36 12 -30 14 -44 -20 38 -21 45 -27 39 28 -46 34 -40 35 -47 0
3 -15 -4 22 5 -29 -6 36 12 -30 14 -44 -20 38 -21 45 -27 39 28 -46 34 -40 35 -47 0
-3 15 -4 -22 -5 29 -6 36 12 -30 14 -44 -20 38 -21 45 -27 39 28 -46 34 -40 35 -47 0
-3 -15 -4 -22 -5 29 -6 36 12 -30 14 -44 -20 38 -21 45 -27 39 28 -46 34 -40 35 -47 0
3 -15 -4 -22 -5 29 -6 36 12 -30 14 -44 -20 38 -21 45 -27 39 28 -46 34 -40 35 -47 0
-3 15 4 -22 -5 29 -6 36 12 -30 14 -44 -20 38 -21 45 -27 39 28 -46 34 -40 35 -47 0
-3 -15 4 -22 -5 29 -6 36 12 -30 14 -44 -20 38 -21 45 -27 39 28 -46 34 -40 35 -47 0
3 -15 4 -22 -5 29 -6 36 12 -30 14 -44 -20 38 -21 45 -27 39 28 -46 34 -40 35 -47 0
-3 15 -4 22 -5 29 -6 36 12 -30 14 -44 -20 38 -21 45 -27 39 28 -46 34 -40 35 -47 0
-3 -15 -4 22 -5 29 -6 36 12 -30 14 -44 -20 38 -21 45 -27 39 28 -46 34 -40 35 -47 0
3 -15 -4 22 -5 29 -6 36 12 -30 14 -44 -20 38 -21 45 -27 39 28 -46 34 -40 35 -47 0
-3 15 -4 -22 5 -29 6 -36 12 -30 14 -44 -20 38 -21 45 -27 39 28 -46 34 -40 35 -47 0
-3 -15 -4 -22 5 -29 6 -36 12 -30 14 -44 -20 38 -21 45 -27 39 28 -46 34 -40 35 -47 0
3 -15 -4 -22 5 -29 6 -36 12 -30 14 -44 -20 38 -21 45 -27 39 28 -46 34 -40 35 -47 0
-3 15 4 -22 5 -29 6 -36 12 -30 14 -44 -20 38 -21 45 -27 39 28 -46 34 -40 35 -47 0
-3 -15 4 -22 5 -29 6 -36 12 -30 14 -44 -20 38 -21 45 -27 39 28 -46 34 -40 35 -47 0
3 -15 4 -22 5 -29 6 -36 12 -30 14 -44 -20 38 -21 45 -27 39 28 -46 34 -40 35 -47 0
-3 15 -4 22 5 -29 6 -36 12 -30 14 -44 -20 38 -21 45 -27 39 28 -46 34 -40 35 -47 0
-3 -15 -4 22 5 -29 6 -36 12 -30 14 -44 -20 38 -21 45 -27 39 28 -46 34 -40 35 -47 0
3 -15 -4 22 5 -29 6 -36 12 -30 14 -44 -20 38 -21 45 -27 39 28 -46 34 -40 35 -47 0
-3 15 -4 -22 -5 29 6 -36 12 -30 14 -44 -20 38 -21 45 -27 39 28 -46 34 -40 35 -47 0
-3 -15 -4 -22 -5 29 6 -36 12 -30 14 -44 -20 38 -21 45 -27 39 28 -46 34 -40 35 -47 0
3 -15 -4 -22 -5 29 6 -36 12 -30 14 -44 -20 38 -21 45 -27 39 28 -46 34 -40 35 -47 0
-3 15 4 -22 -5 29 6 -36 12 -30 14 -44 -20 38 -21 45 -27 39 28 -46 34 -40 35 -47 0
-3 -15 4 -22 -5 29 6 -36 12 -30 14 -44 -20 38 -21 45 -27 39 28 -46 34 -40 35 -47 0
3 -15 4 -22 -5 29 6 -36 12 -30 14 -44 -20 38 -21 45 -27 39 28 -46 34 -40 35 -47 0
-3 15 -4 22 -5 29 6 -36 12 -30 14 -44 -20 38 -21 45 -27 39 28 -46 34 -40 35 -47 0
-3 -15 -4 22 -5 29 6 -36 12 -30 14 -44 -20 38 -21 45 -27 39 28 -46 34 -40 35 -47 0
3 -15 -4 22 -5 29 6 -36 12 -30 14 -44 -20 38 -21 45 -27 39 28 -46 34 -40 35 -47 0
-3 15 -4 -22 5 -29 -6 36 -12 30 14 -44 -20 38 -21 45 -27 39 28 -46 34 -40 35 -47 0
-3 -15 -4 -22 5 -29 -6 36 -12 30 14 -44 -20 38 -21 45 -27 39 28 -46 34 -40 35 -47 0
3 -15 -4 -22 5 -29 -6 36 -12 30 14 -44 -20 38 -21 45 -27 39 28 -46 34 -40 35 -47 0
-3 15 4 -22 5 -29 -6 36 -12 30 14 -44 -20 38 -21 45 -27 39 28 -46 34 -40 35 -47 0
-3 -15 4 -22 5 -29 -6 36 -12 30 14 -44 -20 38 -21 45 -27 39 28 -46 34 -40 35 -47 0
3 -15 4 -22 5 -29 -6 36 -12 30 14 -44 -20 38 -21 45 -27 39 28 -46 34 -40 35 -47 0
-3 15 -4 22 5 -29 -6 36 -12 30 14 -44 -20 38 -21 45 -27 39 28 -46 34 -40 35 -47 0
-3 -15 -4 22 5 -29 -6 36 -12 30 14 -44 -20 38 -21 45 -27 39 28 -46 34 -40 35 -47 0
3 -15 -4 22 5 -29 -6 36 -12 30 14 -44 -20 38 -21 45 -27 39 28 -46 34 -40 35 -47 0
-3 15 -4 -22 -5 29 -6 36 -12 30 14 -44 -20 38 -21 45 -27 39 28 -46 34 -40 35 -47 0
-3 -15 -4 -22 -5 29 -6 36 -12 30 14 -44 -20 38 -21 45 -27 39 28 -46 34 -40 35 -47 0
3 -15 -4 -22 -5 29 -6 36 -12 30 14 -44 -20 38 -21 45 -27 39 28 -46 34 -40 35 -47 0
-3 15 4 -22 -5 29 -6 36 -12 30 14 -44 -20 38 -21 45 -27 39 28 -46 34 -40 35 -47 0
-3 -15 4 -22 -5 29 -6 36 -12 30 14 -44 -20 38 -21 45 -27 39 28 -46 34 -40 35 -47 0
3 -15 4 -22 -5 29 -6 36 -12 30 14 -44 -20 38 -21 45 -27 39 28 -46 34 -40 35 -47 0
-3 15 -4 22 -5 29 -6 36 -12 30 14 -44 -20 38 -21 45 -27 39 28 -46 34 -40 35 -47 0
-3 -15 -4 22 -5 29 -6 36 -12 30 14 -44 -20 38 -21 45 -27 39 28 -46 34 -40 35 -47 0
3 -15 -4 22 -5 29 -6 36 -12 30 14 -44 -20 38 -21 45 -27 39 28 -46 34 -40 35 -47 0
-3 15 -4 -22 5 -29 6 -36 -12 30 14 -44 -20 38 -21 45 -27 39 28 -46 34 -40 35 -47 0
-3 -15 -4 -22 5 -29 6 -36 -12 30 14 -44 -20 38 -21 45 -27 39 28 -46 34 -40 35 -47 0
3 -15 -4 -22 5 -29 6 -36 -12 30 14 -44 -20 38 -21 45 -27 39 28 -46 34 -40 35 -47 0
-3 15 4 -22 5 -29 6 -36 -12 30 14 -44 -20 38 -21 45 -27 39 28 -46 34 -40 35 -47 0
-3 -15 4 -22 5 -29 6 -36 -12 30 14 -44 -20 38 -21 45 -27 39 28 -46 34 -40 35 -47 0
3 -15 4 -22 5 -29 6 -36 -12 30 14 -44 -20 38 -21 45 -27 39 28 -46 34 -40 35 -47 0
-3 15 -4 22 5 -29 6 -36 -12 30 14 -44 -20 38 -21 45 -27 39 28 -46 34 -40 35 -47 0
-3 -15 -4 22 5 -29 6 -36 -12 30 14 -44 -20 38 -21 45 -27 39 28 -46 34 -40 35 -47 0
3 -15 -4 22 5 -29 6 -36 -12 30 14 -44 -20 38 -21 45 -27 39 28 -46 34 -40 35 -47 0
-3 15 -4 -22 -5 29 6 -36 -12 30 14 -44 -20 38 -21 45 -27 39 28 -46 34 -40 35 -47 0
-3 -15 -4 -22 -5 29 6 -36 -12 30 14 -44 -20 38 -21 45 -27 39 28 -46 34 -40 35 -47 0
3 -15 -4 -22 -5 29 6 -36 -12 30 14 -44 -20 38 -21 45 -27 39 28 -46 34 -40 35 -47 0
-3 15 4 -22 -5 29 6 -36 -12 30 14 -44 -20 38 -21 45 -27 39 28 -46 34 -40 35 -47 0
-3 -15 4 -22 -5 29 6 -36 -12 30 14 -44 -20 38 -21 45 -27 39 28 -46 34 -40 35 -47 0
3 -15 4 -22 -5 29 6 -36 -12 30 14 -44 -20 38 -21 45 -27 39 28 -46 34 -40 35 -47 0
-3 15 -4 22 -5 29 6 -36 -12 30 14 -44 -20 38 -21 45 -27 39 28 -46 34 -40 35 -47 0
-3 -15 -4 22 -5 29 6 -36 -12 30 14 -44 -20 38 -21 45 -27 39 28 -46 34 -40 35 -47 0
3 -15 -4 22 -5 29 6 -36 -12 30 14 -44 -20 38 -21 45 -27 39 28 -46 34 -40 35 -47 0
-3 15 -4 -22 5 -29 -6 36 12 -30 -14 44 -20 38 21 -45 -27 39 28 -46 34 -40 35 -47 0
-3 -15 -4 -22 5 -29 -6 36 12 -30 -14 44 -20 38 21 -45 -27 39 28 -46 34 -40 35 -47 0
3 -15 -4 -22 5 -29 -6 36 12 -30 -14 44 -20 38 21 -45 -27 39 28 -46 34 -40 35 -47 0
-3 15 4 -22 5 -29 -6 36 12 -30 -14 44 -20 38 21 -45 -27 39 28 -46 34 -40 35 -47 0
-3 -15 4 -22 5 -29 -6 36 12 -30 -14 44 -20 38 21 -45 -27 39 28 -46 34 -40 35 -47 0
3 -15 4 -22 5 -29 -6 36 12 -30 -14 44 -20 38 21 -45 -27 39 28 -46 34 -40 35 -47 0
-3 15 -4 22 5 -29 -6 36 12 -30 -14 44 -20 38 21 -45 -27 39 28 -46 34 -40 35 -47 0
-3 -15 -4 22 5 -29 -6 36 12 -30 -14 44 -20 38 21 -45 -27 39 28 -46 34 -40 35 -47 0
3 -15 -4 22 5 -29 -6 36 12 -30 -14 44 -20 38 21 -45 -27 39 28 -46 34 -40 35 -47 0
-3 15 -4 -22 -5 29 -6 36 12 -30 -14 44 -20 38 21 -45 -27 39 28 -46 34 -40 35 -47 0
-3 -15 -4 -22 -5 29 -6 36 12 -30 -14 44 -20 38 21 -45 -27 39 28 -46 34 -40 35 -47 0
3 -15 -4 -22 -5 29 -6 36 12 -30 -14 44 -20 38 21 -45 -27 39 28 -46 34 -40 35 -47 0
-3 15 4 -22 -5 29 -6 36 12 -30 -14 44 -20 38 21 -45 -27 39 28 -46 34 -40 35 -47 0
-3 -15 4 -22 -5 29 -6 36 12 -30 -14 44 -20 38 21 -45 -27 39 28 -46 34 -40 35 -47 0
3 -15 4 -22 -5 29 -6 36 12 -30 -14 44 -20 38 21 -45 -27 39 28 -46 34 -40 35 -47 0
-3 15 -4 22 -5 29 -6 36 12 -30 -14 44 -20 38 21 -45 -27 39 28 -46 34 -40 35 -47 0
-3 -15 -4 22 -5 29 -6 36 12 -30 -14 44 -20 38 21 -45 -27 39 28 -46 34 -40 35 -47 0
3 -15 -4 22 -5 29 -6 36 12 -30 -14 44 -20 38 21 -45 -27 39 28 -46 34 -40 35 -47 0
-3 15 -4 -22 5 -29 6 -36 12 -30 -14 44 -20 38 21 -45 -27 39 28 -46 34 -40 35 -47 0
-3 -15 -4 -22 5 -29 6 -36 12 -30 -14 44 -20 38 21 -45 -27 39 28 -46 34 -40 35 -47 0
3 -15 -4 -22 5 -29 6 -36 12 -30 -14 44 -20 38 21 -45 -27 39 28 -46 34 -40 35 -47 0
-3 15 4 -22 5 -29 6 -36 12 -30 -14 44 -20 38 21 -45 -27 39 28 -46 34 -40 35 -47 0
-3 -15 4 -22 5 -29 6 -36 12 -30 -14 44 -20 38 21 -45 -27 39 28 -46 34 -40 35 -47 0
3 -15 4 -22 5 -29 6 -36 12 -30 -14 44 -20 38 21 -45 -27 39 28 -46 34 -40 35 -47 0
-3 15 -4 22 5 -29 6 -36 12 -30 -14 44 -20 38 21 -45 -27 39 28 -46 34 -40 35 -47 0
-3 -15 -4 22 5 -29 6 -36 12 -30 -14 44 -20 38 21 -45 -27 39 28 -46 34 -40 35 -47 0
3 -15 -4 22 5 -29 6 -36 12 -30 -14 44 -20 38 21 -45 -27 39 28 -46 34 -40 35 -47 0
-3 15 -4 -22 -5 29 6 -36 12 -30 -14 44 -20 38 21 -45 -27 39 28 -46 34 -40 35 -47 0
-3 -15 -4 -22 -5 29 6 -36 12 -30 -14 44 -20 38 21 -45 -27 39 28 -46 34 -40 35 -47 0
3 -15 -4 -22 -5 29 6 -36 12 -30 -14 44 -20 38 21 -45 -27 39 28 -46 34 -40 35 -47 0
-3 15 4 -22 -5 29 6 -36 12 -30 -14 44 -20 38 21 -45 -27 39 28 -46 34 -40 35 -47 0
-3 -15 4 -22 -5 29 6 -36 12 -30 -14 44 -20 38 21 -45 -27 39 28 -46 34 -40 35 -47 0
3 -15 4 -22 -5 29 6 -36 12 -30 -14 44 -20 38 21 -45 -27 39 28 -46 34 -40 35 -47 0
-3 15 -4 22 -5 29 6 -36 12 -30 -14 44 -20 38 21 -45 -27 39 28 -46 34 -40 35 -47 0
-3 -15 -4 22 -5 29 6 -36 12 -30 -14 44 -20 38 21 -45 -27 39 28 -46 34 -40 35 -47 0
3 -15 -4 22 -5 29 6 -36 12 -30 -14 44 -20 38 21 -45 -27 39 28 -46 34 -40 35 -47 0
-3 15 -4 -22 5 -29 -6 36 -12 30 -14 44 -20 38 21 -45 -27 39 28 -46 34 -40 35 -47 0
-3 -15 -4 -22 5 -29 -6 36 -12 30 -14 44 -20 38 21 -45 -27 39 28 -46 34 -40 35 -47 0
3 -15 -4 -22 5 -29 -6 36 -12 30 -14 44 -20 38 21 -45 -27 39 28 -46 34 -40 35 -47 0
-3 15 4 -22 5 -29 -6 36 -12 30 -14 44 -20 38 21 -45 -27 39 28 -46 34 -40 35 -47 0
-3 -15 4 -22 5 -29 -6 36 -12 30 -14 44 -20 38 21 -45 -27 39 28 -46 34 -40 35 -47 0
3 -15 4 -22 5 -29 -6 36 -12 30 -14 44 -20 38 21 -45 -27 39 28 -46 34 -40 35 -47 0
-3 15 -4 22 5 -29 -6 36 -12 30 -14 44 -20 38 21 -45 -27 39 28 -46 34 -40 35 -47 0
-3 -15 -4 22 5 -29 -6 36 -12 30 -14 44 -20 38 21 -45 -27 39 28 -46 34 -40 35 -47 0
3 -15 -4 22 5 -29 -6 36 -12 30 -14 44 -20 38 21 -45 -27 39 28 -46 34 -40 35 -47 0
-3 15 -4 -22 -5 29 -6 36 -12 30 -14 44 -20 38 21 -45 -27 39 28 -46 34 -40 35 -47 0
-3 -15 -4 -22 -5 29 -6 36 -12 30 -14 44 -20 38 21 -45 -27 39 28 -46 34 -40 35 -47 0
3 -15 -4 -22 -5 29 -6 36 -12 30 -14 44 -20 38 21 -45 -27 39 28 -46 34 -40 35 -47 0
-3 15 4 -22 -5 29 -6 36 -12 30 -14 44 -20 38 21 -45 -27 39 28 -46 34 -40 35 -47 0
-3 -15 4 -22 -5 29 -6 36 -12 30 -14 44 -20 38 21 -45 -27 39 28 -46 34 -40 35 -47 0
3 -15 4 -22 -5 29 -6 36 -12 30 -14 44 -20 38 21 -45 -27 39 28 -46 34 -40 35 -47 0
-3 15 -4 22 -5 29 -6 36 -12 30 -14 44 -20 38 21 -45 -27 39 28 -46 34 -40 35 -47 0
-3 -15 -4 22 -5 29 -6 36 -12 30 -14 44 -20 38 21 -45 -27 39 28 -46 34 -40 35 -47 0
3 -15 -4 22 -5 29 -6 36 -12 30 -14 44 -20 38 21 -45 -27 39 28 -46 34 -40 35 -47 0
-3 15 -4 -22 5 -29 6 -36 -12 30 -14 44 -20 38 21 -45 -27 39 28 -46 34 -40 35 -47 0
-3 -15 -4 -22 5 -29 6 -36 -12 30 -14 44 -20 38 21 -45 -27 39 28 -46 34 -40 35 -47 0
3 -15 -4 -22 5 -29 6 -36 -12 30 -14 44 -20 38 21 -45 -27 39 28 -46 34 -40 35 -47 0
-3 15 4 -22 5 -29 6 -36 -12 30 -14 44 -20 38 21 -45 -27 39 28 -46 34 -40 35 -47 0
-3 -15 4 -22 5 -29 6 -36 -12 30 -14 44 -20 38 21 -45 -27 39 28 -46 34 -40 35 -47 0
3 -15 4 -22 5 -29 6 -36 -12 30 -14 44 -20 38 21 -45 -27 39 28 -46 34 -40 35 -47 0
-3 15 -4 22 5 -29 6 -36 -12 30 -14 44 -20 38 21 -45 -27 39 28 -46 34 -40 35 -47 0
-3 -15 -4 22 5 -29 6 -36 -12 30 -14 44 -20 38 21 -45 -27 39 28 -46 34 -40 35 -47 0
3 -15 -4 22 5 -29 6 -36 -12 30 -14 44 -20 38 21 -45 -27 39 28 -46 34 -40 35 -47 0
-3 15 -4 -22 -5 29 6 -36 -12 30 -14 44 -20 38 21 -45 -27 39 28 -46 34 -40 35 -47 0
-3 -15 -4 -22 -5 29 6 -36 -12 30 -14 44 -20 38 21 -45 -27 39 28 -46 34 -40 35 -47 0
3 -15 -4 -22 -5 29 6 -36 -12 30 -14 44 -20 38 21 -45 -27 39 28 -46 34 -40 35 -47 0
-3 15 4 -22 -5 29 6 -36 -12 30 -14 44 -20 38 21 -45 -27 39 28 -46 34 -40 35 -47 0
-3 -15 4 -22 -5 29 6 -36 -12 30 -14 44 -20 38 21 -45 -27 39 28 -46 34 -40 35 -47 0
3 -15 4 -22 -5 29 6 -36 -12 30 -14 44 -20 38 21 -45 -27 39 28 -46 34 -40 35 -47 0
-3 15 -4 22 -5 29 6 -36 -12 30 -14 44 -20 38 21 -45 -27 39 28 -46 34 -40 35 -47 0
-3 -15 -4 22 -5 29 6 -36 -12 30 -14 44 -20 38 21 -45 -27 39 28 -46 34 -40 35 -47 0
3 -15 -4 22 -5 29 6 -36 -12 30 -14 44 -20 38 21 -45 -27 39 28 -46 34 -40 35 -47 0
-3 15 -4 -22 5 -29 -6 36 12 -30 14 -44 -20 38 21 -45 -27 39 28 -46 34 -40 35 -47 0
-3 -15 -4 -22 5 -29 -6 36 12 -30 14 -44 -20 38 21 -45 -27 39 28 -46 34 -40 35 -47 0
3 -15 -4 -22 5 -29 -6 36 12 -30 14 -44 -20 38 21 -45 -27 39 28 -46 34 -40 35 -47 0
-3 15 4 -22 5 -29 -6 36 12 -30 14 -44 -20 38 21 -45 -27 39 28 -46 34 -40 35 -47 0
-3 -15 4 -22 5 -29 -6 36 12 -30 14 -44 -20 38 21 -45 -27 39 28 -46 34 -40 35 -47 0
3 -15 4 -22 5 -29 -6 36 12 -30 14 -44 -20 38 21 -45 -27 39 28 -46 34 -40 35 -47 0
-3 15 -4 22 5 -29 -6 36 12 -30 14 -44 -20 38 21 -45 -27 39 28 -46 34 -40 35 -47 0
-3 -15 -4 22 5 -29 -6 36 12 -30 14 -44 -20 38 21 -45 -27 39 28 -46 34 -40 35 -47 0
3 -15 -4 22 5 -29 -6 36 12 -30 14 -44 -20 38 21 -45 -27 39 28 -46 34 -40 35 -47 0
-3 15 -4 -22 -5 29 -6 36 12 -30 14 -44 -20 38 21 -45 -27 39 28 -46 34 -40 35 -47 0
-3 -15 -4 -22 -5 29 -6 36 12 -30 14 -44 -20 38 21 -45 -27 39 28 -46 34 -40 35 -47 0
3 -15 -4 -22 -5 29 -6 36 12 -30 14 -44 -20 38 21 -45 -27 39 28 -46 34 -40 35 -47 0
-3 15 4 -22 -5 29 -6 36 12 -30 14 -44 -20 38 21 -45 -27 39 28 -46 34 -40 35 -47 0
-3 -15 4 -22 -5 29 -6 36 12 -30 14 -44 -20 38 21 -45 -27 39 28 -46 34 -40 35 -47 0
3 -15 4 -22 -5 29 -6 36 12 -30 14 -44 -20 38 21 -45 -27 39 28 -46 34 -40 35 -47 0
-3 15 -4 22 -5 29 -6 36 12 -30 14 -44 -20 38 21 -45 -27 39 28 -46 34 -40 35 -47 0
-3 -15 -4 22 -5 29 -6 36 12 -30 14 -44 -20 38 21 -45 -27 39 28 -46 34 -40 35 -47 0
3 -15 -4 22 -5 29 -6 36 12 -30 14 -44 -20 38 21 -45 -27 39 28 -46 34 -40 35 -47 0
-3 15 -4 -22 5 -29 6 -36 12 -30 14 -44 -20 38 21 -45 -27 39 28 -46 34 -40 35 -47 0
-3 -15 -4 -22 5 -29 6 -36 12 -30 14 -44 -20 38 21 -45 -27 39 28 -46 34 -40 35 -47 0
3 -15 -4 -22 5 -29 6 -36 12 -30 14 -44 -20 38 21 -45 -27 39 28 -46 34 -40 35 -47 0
-3 15 4 -22 5 -29 6 -36 12 -30 14 -44 -20 38 21 -45 -27 39 28 -46 34 -40 35 -47 0
-3 -15 4 -22 5 -29 6 -36 12 -30 14 -44 -20 38 21 -45 -27 39 28 -46 34 -40 35 -47 0
3 -15 4 -22 5 -29 6 -36 12 -30 14 -44 -20 38 21 -45 -27 39 28 -46 34 -40 35 -47 0
-3 15 -4 22 5 -29 6 -36 12 -30 14 -44 -20 38 21 -45 -27 39 28 -46 34 -40 35 -47 0
-3 -15 -4 22 5 -29 6 -36 12 -30 14 -44 -20 38 21 -45 -27 39 28 -46 34 -40 35 -47 0
3 -15 -4 22 5 -29 6 -36 12 -30 14 -44 -20 38 21 -45 -27 39 28 -46 34 -40 35 -47 0
-3 15 -4 -22 -5 29 6 -36 12 -30 14 -44 -20 38 21 -45 -27 39 28 -46 34 -40 35 -47 0
-3 -15 -4 -22 -5 29 6 -36 12 -30 14 -44 -20 38 21 -45 -27 39 28 -46 34 -40 35 -47 0
3 -15 -4 -22 -5 29 6 -36 12 -30 14 -44 -20 38 21 -45 -27 39 28 -46 34 -40 35 -47 0
-3 15 4 -22 -5 29 6 -36 12 -30 14 -44 -20 38 21 -45 -27 39 28 -46 34 -40 35 -47 0
-3 -15 4 -22 -5 29 6 -36 12 -30 14 -44 -20 38 21 -45 -27 39 28 -46 34 -40 35 -47 0
3 -15 4 -22 -5 29 6 -36 12 -30 14 -44 -20 38 21 -45 -27 39 28 -46 34 -40 35 -47 0
-3 15 -4 22 -5 29 6 -36 12 -30 14 -44 -20 38 21 -45 -27 39 28 -46 34 -40 35 -47 0
-3 -15 -4 22 -5 29 6 -36 12 -30 14 -44 -20 38 21 -45 -27 39 28 -46 34 -40 35 -47 0
3 -15 -4 22 -5 29 6 -36 12 -30 14 -44 -20 38 21 -45 -27 39 28 -46 34 -40 35 -47 0
-3 15 -4 -22 5 -29 -6 36 -12 30 14 -44 -20 38 21 -45 -27 39 28 -46 34 -40 35 -47 0
-3 -15 -4 -22 5 -29 -6 36 -12 30 14 -44 -20 38 21 -45 -27 39 28 -46 34 -40 35 -47 0
3 -15 -4 -22 5 -29 -6 36 -12 30 14 -44 -20 38 21 -45 -27 39 28 -46 34 -40 35 -47 0
-3 15 4 -22 5 -29 -6 36 -12 30 14 -44 -20 38 21 -45 -27 39 28 -46 34 -40 35 -47 0
-3 -15 4 -22 5 -29 -6 36 -12 30 14 -44 -20 38 21 -45 -27 39 28 -46 34 -40 35 -47 0
3 -15 4 -22 5 -29 -6 36 -12 30 14 -44 -20 38 21 -45 -27 39 28 -46 34 -40 35 -47 0
-3 15 -4 22 5 -29 -6 36 -12 30 14 -44 -20 38 21 -45 -27 39 28 -46 34 -40 35 -47 0
-3 -15 -4 22 5 -29 -6 36 -12 30 14 -44 -20 38 21 -45 -27 39 28 -46 34 -40 35 -47 0
3 -15 -4 22 5 -29 -6 36 -12 30 14 -44 -20 38 21 -45 -27 39 28 -46 34 -40 35 -47 0
-3 15 -4 -22 -5 29 -6 36 -12 30 14 -44 -20 38 21 -45 -27 39 28 -46 34 -40 35 -47 0
-3 -15 -4 -22 -5 29 -6 36 -12 30 14 -44 -20 38 21 -45 -27 39 28 -46 34 -40 35 -47 0
3 -15 -4 -22 -5 29 -6 36 -12 30 14 -44 -20 38 21 -45 -27 39 28 -46 34 -40 35 -47 0
-3 15 4 -22 -5 29 -6 36 -12 30 14 -44 -20 38 21 -45 -27 39 28 -46 34 -40 35 -47 0
-3 -15 4 -22 -5 29 -6 36 -12 30 14 -44 -20 38 21 -45 -27 39 28 -46 34 -40 35 -47 0
3 -15 4 -22 -5 29 -6 36 -12 30 14 -44 -20 38 21 -45 -27 39 28 -46 34 -40 35 -47 0
-3 15 -4 22 -5 29 -6 36 -12 30 14 -44 -20 38 21 -45 -27 39 28 -46 34 -40 35 -47 0
-3 -15 -4 22 -5 29 -6 36 -12 30 14 -44 -20 38 21 -45 -27 39 28 -46 34 -40 35 -47 0
3 -15 -4 22 -5 29 -6 36 -12 30 14 -44 -20 38 21 -45 -27 39 28 -46 34 -40 35 -47 0
-3 15 -4 -22 5 -29 6 -36 -12 30 14 -44 -20 38 21 -45 -27 39 28 -46 34 -40 35 -47 0
-3 -15 -4 -22 5 -29 6 -36 -12 30 14 -44 -20 38 21 -45 -27 39 28 -46 34 -40 35 -47 0
3 -15 -4 -22 5 -29 6 -36 -12 30 14 -44 -20 38 21 -45 -27 39 28 -46 34 -40 35 -47 0
-3 15 4 -22 5 -29 6 -36 -12 30 14 -44 -20 38 21 -45 -27 39 28 -46 34 -40 35 -47 0
-3 -15 4 -22 5 -29 6 -36 -12 30 14 -44 -20 38 21 -45 -27 39 28 -46 34 -40 35 -47 0
3 -15 4 -22 5 -29 6 -36 -12 30 14 -44 -20 38 21 -45 -27 39 28 -46 34 -40 35 -47 0
-3 15 -4 22 5 -29 6 -36 -12 30 14 -44 -20 38 21 -45 -27 39 28 -46 34 -40 35 -47 0
-3 -15 -4 22 5 -29 6 -36 -12 30 14 -44 -20 38 21 -45 -27 39 28 -46 34 -40 35 -47 0
3 -15 -4 22 5 -29 6 -36 -12 30 14 -44 -20 38 21 -45 -27 39 28 -46 34 -40 35 -47 0
-3 15 -4 -22 -5 29 6 -36 -12 30 14 -44 -20 38 21 -45 -27 39 28 -46 34 -40 35 -47 0
-3 -15 -4 -22 -5 29 6 -36 -12 30 14 -44 -20 38 21 -45 -27 39 28 -46 34 -40 35 -47 0
3 -15 -4 -22 -5 29 6 -36 -12 30 14 -44 -20 38 21 -45 -27 39 28 -46 34 -40 35 -47 0
-3 15 4 -22 -5 29 6 -36 -12 30 14 -44 -20 38 21 -45 -27 39 28 -46 34 -40 35 -47 0
-3 -15 4 -22 -5 29 6 -36 -12 30 14 -44 -20 38 21 -45 -27 39 28 -46 34 -40 35 -47 0
3 -15 4 -22 -5 29 6 -36 -12 30 14 -44 -20 38 21 -45 -27 39 28 -46 34 -40 35 -47 0
-3 15 -4 22 -5 29 6 -36 -12 30 14 -44 -20 38 21 -45 -27 39 28 -46 34 -40 35 -47 0
-3 -15 -4 22 -5 29 6 -36 -12 30 14 -44 -20 38 21 -45 -27 39 28 -46 34 -40 35 -47 0
3 -15 -4 22 -5 29 6 -36 -12 30 14 -44 -20 38 21 -45 -27 39 28 -46 34 -40 35 -47 0
-3 15 -4 -22 5 -29 -6 36 12 -30 -14 44 20 -38 21 -45 -27 39 28 -46 34 -40 35 -47 0
-3 -15 -4 -22 5 -29 -6 36 12 -30 -14 44 20 -38 21 -45 -27 39 28 -46 34 -40 35 -47 0
3 -15 -4 -22 5 -29 -6 36 12 -30 -14 44 20 -38 21 -45 -27 39 28 -46 34 -40 35 -47 0
-3 15 4 -22 5 -29 -6 36 12 -30 -14 44 20 -38 21 -45 -27 39 28 -46 34 -40 35 -47 0
-3 -15 4 -22 5 -29 -6 36 12 -30 -14 44 20 -38 21 -45 -27 39 28 -46 34 -40 35 -47 0
3 -15 4 -22 5 -29 -6 36 12 -30 -14 44 20 -38 21 -45 -27 39 28 -46 34 -40 35 -47 0
-3 15 -4 22 5 -29 -6 36 12 -30 -14 44 20 -38 21 -45 -27 39 28 -46 34 -40 35 -47 0
-3 -15 -4 22 5 -29 -6 36 12 -30 -14 44 20 -38 21 -45 -27 39 28 -46 34 -40 35 -47 0
3 -15 -4 22 5 -29 -6 36 12 -30 -14 44 20 -38 21 -45 -27 39 28 -46 34 -40 35 -47 0
-3 15 -4 -22 -5 29 -6 36 12 -30 -14 44 20 -38 21 -45 -27 39 28 -46 34 -40 35 -47 0
-3 -15 -4 -22 -5 29 -6 36 12 -30 -14 44 20 -38 21 -45 -27 39 28 -46 34 -40 35 -47 0
3 -15 -4 -22 -5 29 -6 36 12 -30 -14 44 20 -38 21 -45 -27 39 28 -46 34 -40 35 -47 0
-3 15 4 -22 -5 29 -6 36 12 -30 -14 44 20 -38 21 -45 -27 39 28 -46 34 -40 35 -47 0
-3 -15 4 -22 -5 29 -6 36 12 -30 -14 44 20 -38 21 -45 -27 39 28 -46 34 -40 35 -47 0
3 -15 4 -22 -5 29 -6 36 12 -30 -14 44 20 -38 21 -45 -27 39 28 -46 34 -40 35 -47 0
-3 15 -4 22 -5 29 -6 36 12 -30 -14 44 20 -38 21 -45 -27 39 28 -46 34 -40 35 -47 0
-3 -15 -4 22 -5 29 -6 36 12 -30 -14 44 20 -38 21 -45 -27 39 28 -46 34 -40 35 -47 0
3 -15 -4 22 -5 29 -6 36 12 -30 -14 44 20 -38 21 -45 -27 39 28 -46 34 -40 35 -47 0
-3 15 -4 -22 5 -29 6 -36 12 -30 -14 44 20 -38 21 -45 -27 39 28 -46 34 -40 35 -47 0
-3 -15 -4 -22 5 -29 6 -36 12 -30 -14 44 20 -38 21 -45 -27 39 28 -46 34 -40 35 -47 0
3 -15 -4 -22 5 -29 6 -36 12 -30 -14 44 20 -38 21 -45 -27 39 28 -46 34 -40 35 -47 0
-3 15 4 -22 5 -29 6 -36 12 -30 -14 44 20 -38 21 -45 -27 39 28 -46 34 -40 35 -47 0
-3 -15 4 -22 5 -29 6 -36 12 -30 -14 44 20 -38 21 -45 -27 39 28 -46 34 -40 35 -47 0
3 -15 4 -22 5 -29 6 -36 12 -30 -14 44 20 -38 21 -45 -27 39 28 -46 34 -40 35 -47 0
-3 15 -4 22 5 -29 6 -36 12 -30 -14 44 20 -38 21 -45 -27 39 28 -46 34 -40 35 -47 0
-3 -15 -4 22 5 -29 6 -36 12 -30 -14 44 20 -38 21 -45 -27 39 28 -46 34 -40 35 -47 0
3 -15 -4 22 5 -29 6 -36 12 -30 -14 44 20 -38 21 -45 -27 39 28 -46 34 -40 35 -47 0
-3 15 -4 -22 -5 29 6 -36 12 -30 -14 44 20 -38 21 -45 -27 39 28 -46 34 -40 35 -47 0
-3 -15 -4 -22 -5 29 6 -36 12 -30 -14 44 20 -38 21 -45 -27 39 28 -46 34 -40 35 -47 0
3 -15 -4 -22 -5 29 6 -36 12 -30 -14 44 20 -38 21 -45 -27 39 28 -46 34 -40 35 -47 0
-3 15 4 -22 -5 29 6 -36 12 -30 -14 44 20 -38 21 -45 -27 39 28 -46 34 -40 35 -47 0
-3 -15 4 -22 -5 29 6 -36 12 -30 -14 44 20 -38 21 -45 -27 39 28 -46 34 -40 35 -47 0
3 -15 4 -22 -5 29 6 -36 12 -30 -14 44 20 -38 21 -45 -27 39 28 -46 34 -40 35 -47 0
-3 15 -4 22 -5 29 6 -36 12 -30 -14 44 20 -38 21 -45 -27 39 28 -46 34 -40 35 -47 0
-3 -15 -4 22 -5 29 6 -36 12 -30 -14 44 20 -38 21 -45 -27 39 28 -46 34 -40 35 -47 0
3 -15 -4 22 -5 29 6 -36 12 -30 -14 44 20 -38 21 -45 -27 39 28 -46 34 -40 35 -47 0
-3 15 -4 -22 5 -29 -6 36 -12 30 -14 44 20 -38 21 -45 -27 39 28 -46 34 -40 35 -47 0
-3 -15 -4 -22 5 -29 -6 36 -12 30 -14 44 20 -38 21 -45 -27 39 28 -46 34 -40 35 -47 0
3 -15 -4 -22 5 -29 -6 36 -12 30 -14 44 20 -38 21 -45 -27 39 28 -46 34 -40 35 -47 0
-3 15 4 -22 5 -29 -6 36 -12 30 -14 44 20 -38 21 -45 -27 39 28 -46 34 -40 35 -47 0
-3 -15 4 -22 5 -29 -6 36 -12 30 -14 44 20 -38 21 -45 -27 39 28 -46 34 -40 35 -47 0
3 -15 4 -22 5 -29 -6 36 -12 30 -14 44 20 -38 21 -45 -27 39 28 -46 34 -40 35 -47 0
-3 15 -4 22 5 -29 -6 36 -12 30 -14 44 20 -38 21 -45 -27 39 28 -46 34 -40 35 -47 0
-3 -15 -4 22 5 -29 -6 36 -12 30 -14 44 20 -38 21 -45 -27 39 28 -46 34 -40 35 -47 0
3 -15 -4 22 5 -29 -6 36 -12 30 -14 44 20 -38 21 -45 -27 39 28 -46 34 -40 35 -47 0
-3 15 -4 -22 -5 29 -6 36 -12 30 -14 44 20 -38 21 -45 -27 39 28 -46 34 -40 35 -47 0
-3 -15 -4 -22 -5 29 -6 36 -12 30 -14 44 20 -38 21 -45 -27 39 28 -46 34 -40 35 -47 0
3 -15 -4 -22 -5 29 -6 36 -12 30 -14 44 20 -38 21 -45 -27 39 28 -46 34 -40 35 -47 0
-3 15 4 -22 -5 29 -6 36 -12 30 -14 44 20 -38 21 -45 -27 39 28 -46 34 -40 35 -47 0
-3 -15 4 -22 -5 29 -6 36 -12 30 -14 44 20 -38 21 -45 -27 39 28 -46 34 -40 35 -47 0
3 -15 4 -22 -5 29 -6 36 -12 30 -14 44 20 -38 21 -45 -27 39 28 -46 34 -40 35 -47 0
-3 15 -4 22 -5 29 -6 36 -12 30 -14 44 20 -38 21 -45 -27 39 28 -46 34 -40 35 -47 0
-3 -15 -4 22 -5 29 -6 36 -12 30 -14 44 20 -38 21 -45 -27 39 28 -46 34 -40 35 -47 0
3 -15 -4 22 -5 29 -6 36 -12 30 -14 44 20 -38 21 -45 -27 39 28 -46 34 -40 35 -47 0
-3 15 -4 -22 5 -29 6 -36 -12 30 -14 44 20 -38 21 -45 -27 39 28 -46 34 -40 35 -47 0
-3 -15 -4 -22 5 -29 6 -36 -12 30 -14 44 20 -38 21 -45 -27 39 28 -46 34 -40 35 -47 0
3 -15 -4 -22 5 -29 6 -36 -12 30 -14 44 20 -38 21 -45 -27 39 28 -46 34 -40 35 -47 0
-3 15 4 -22 5 -29 6 -36 -12 30 -14 44 20 -38 21 -45 -27 39 28 -46 34 -40 35 -47 0
-3 -15 4 -22 5 -29 6 -36 -12 30 -14 44 20 -38 21 -45 -27 39 28 -46 34 -40 35 -47 0
3 -15 4 -22 5 -29 6 -36 -12 30 -14 44 20 -38 21 -45 -27 39 28 -46 34 -40 35 -47 0
-3 15 -4 22 5 -29 6 -36 -12 30 -14 44 20 -38 21 -45 -27 39 28 -46 34 -40 35 -47 0
-3 -15 -4 22 5 -29 6 -36 -12 30 -14 44 20 -38 21 -45 -27 39 28 -46 34 -40 35 -47 0
3 -15 -4 22 5 -29 6 -36 -12 30 -14 44 20 -38 21 -45 -27 39 28 -46 34 -40 35 -47 0
-3 15 -4 -22 -5 29 6 -36 -12 30 -14 44 20 -38 21 -45 -27 39 28 -46 34 -40 35 -47 0
-3 -15 -4 -22 -5 29 6 -36 -12 30 -14 44 20 -38 21 -45 -27 39 28 -46 34 -40 35 -47 0
3 -15 -4 -22 -5 29 6 -36 -12 30 -14 44 20 -38 21 -45 -27 39 28 -46 34 -40 35 -47 0
-3 15 4 -22 -5 29 6 -36 -12 30 -14 44 20 -38 21 -45 -27 39 28 -46 34 -40 35 -47 0
-3 -15 4 -22 -5 29 6 -36 -12 30 -14 44 20 -38 21 -45 -27 39 28 -46 34 -40 35 -47 0
3 -15 4 -22 -5 29 6 -36 -12 30 -14 44 20 -38 21 -45 -27 39 28 -46 34 -40 35 -47 0
-3 15 -4 22 -5 29 6 -36 -12 30 -14 44 20 -38 21 -45 -27 39 28 -46 34 -40 35 -47 0
-3 -15 -4 22 -5 29 6 -36 -12 30 -14 44 20 -38 21 -45 -27 39 28 -46 34 -40 35 -47 0
3 -15 -4 22 -5 29 6 -36 -12 30 -14 44 20 -38 21 -45 -27 39 28 -46 34 -40 35 -47 0
-3 15 -4 -22 5 -29 -6 36 12 -30 14 -44 20 -38 21 -45 -27 39 28 -46 34 -40 35 -47 0
-3 -15 -4 -22 5 -29 -6 36 12 -30 14 -44 20 -38 21 -45 -27 39 28 -46 34 -40 35 -47 0
3 -15 -4 -22 5 -29 -6 36 12 -30 14 -44 20 -38 21 -45 -27 39 28 -46 34 -40 35 -47 0
-3 15 4 -22 5 -29 -6 36 12 -30 14 -44 20 -38 21 -45 -27 39 28 -46 34 -40 35 -47 0
-3 -15 4 -22 5 -29 -6 36 12 -30 14 -44 20 -38 21 -45 -27 39 28 -46 34 -40 35 -47 0
3 -15 4 -22 5 -29 -6 36 12 -30 14 -44 20 -38 21 -45 -27 39 28 -46 34 -40 35 -47 0
-3 15 -4 22 5 -29 -6 36 12 -30 14 -44 20 -38 21 -45 -27 39 28 -46 34 -40 35 -47 0
-3 -15 -4 22 5 -29 -6 36 12 -30 14 -44 20 -38 21 -45 -27 39 28 -46 34 -40 35 -47 0
3 -15 -4 22 5 -29 -6 36 12 -30 14 -44 20 -38 21 -45 -27 39 28 -46 34 -40 35 -47 0
-3 15 -4 -22 -5 29 -6 36 12 -30 14 -44 20 -38 21 -45 -27 39 28 -46 34 -40 35 -47 0
-3 -15 -4 -22 -5 29 -6 36 12 -30 14 -44 20 -38 21 -45 -27 39 28 -46 34 -40 35 -47 0
3 -15 -4 -22 -5 29 -6 36 12 -30 14 -44 20 -38 21 -45 -27 39 28 -46 34 -40 35 -47 0
-3 15 4 -22 -5 29 -6 36 12 -30 14 -44 20 -38 21 -45 -27 39 28 -46 34 -40 35 -47 0
-3 -15 4 -22 -5 29 -6 36 12 -30 14 -44 20 -38 21 -45 -27 39 28 -46 34 -40 35 -47 0
3 -15 4 -22 -5 29 -6 36 12 -30 14 -44 20 -38 21 -45 -27 39 28 -46 34 -40 35 -47 0
-3 15 -4 22 -5 29 -6 36 12 -30 14 -44 20 -38 21 -45 -27 39 28 -46 34 -40 35 -47 0
-3 -15 -4 22 -5 29 -6 36 12 -30 14 -44 20 -38 21 -45 -27 39 28 -46 34 -40 35 -47 0
3 -15 -4 22 -5 29 -6 36 12 -30 14 -44 20 -38 21 -45 -27 39 28 -46 34 -40 35 -47 0
-3 15 -4 -22 5 -29 6 -36 12 -30 14 -44 20 -38 21 -45 -27 39 28 -46 34 -40 35 -47 0
-3 -15 -4 -22 5 -29 6 -36 12 -30 14 -44 20 -38 21 -45 -27 39 28 -46 34 -40 35 -47 0
3 -15 -4 -22 5 -29 6 -36 12 -30 14 -44 20 -38 21 -45 -27 39 28 -46 34 -40 35 -47 0
-3 15 4 -22 5 -29 6 -36 12 -30 14 -44 20 -38 21 -45 -27 39 28 -46 34 -40 35 -47 0
-3 -15 4 -22 5 -29 6 -36 12 -30 14 -44 20 -38 21 -45 -27 39 28 -46 34 -40 35 -47 0
3 -15 4 -22 5 -29 6 -36 12 -30 14 -44 20 -38 21 -45 -27 39 28 -46 34 -40 35 -47 0
-3 15 -4 22 5 -29 6 -36 12 -30 14 -44 20 -38 21 -45 -27 39 28 -46 34 -40 35 -47 0
-3 -15 -4 22 5 -29 6 -36 12 -30 14 -44 20 -38 21 -45 -27 39 28 -46 34 -40 35 -47 0
3 -15 -4 22 5 -29 6 -36 12 -30 14 -44 20 -38 21 -45 -27 39 28 -46 34 -40 35 -47 0
-3 15 -4 -22 -5 29 6 -36 12 -30 14 -44 20 -38 21 -45 -27 39 28 -46 34 -40 35 -47 0
-3 -15 -4 -22 -5 29 6 -36 12 -30 14 -44 20 -38 21 -45 -27 39 28 -46 34 -40 35 -47 0
3 -15 -4 -22 -5 29 6 -36 12 -30 14 -44 20 -38 21 -45 -27 39 28 -46 34 -40 35 -47 0
-3 15 4 -22 -5 29 6 -36 12 -30 14 -44 20 -38 21 -45 -27 39 28 -46 34 -40 35 -47 0
-3 -15 4 -22 -5 29 6 -36 12 -30 14 -44 20 -38 21 -45 -27 39 28 -46 34 -40 35 -47 0
3 -15 4 -22 -5 29 6 -36 12 -30 14 -44 20 -38 21 -45 -27 39 28 -46 34 -40 35 -47 0
-3 15 -4 22 -5 29 6 -36 12 -30 14 -44 20 -38 21 -45 -27 39 28 -46 34 -40 35 -47 0
-3 -15 -4 22 -5 29 6 -36 12 -30 14 -44 20 -38 21 -45 -27 39 28 -46 34 -40 35 -47 0
3 -15 -4 22 -5 29 6 -36 12 -30 14 -44 20 -38 21 -45 -27 39 28 -46 34 -40 35 -47 0
-3 15 -4 -22 5 -29 -6 36 -12 30 14 -44 20 -38 21 -45 -27 39 28 -46 34 -40 35 -47 0
-3 -15 -4 -22 5 -29 -6 36 -12 30 14 -44 20 -38 21 -45 -27 39 28 -46 34 -40 35 -47 0
3 -15 -4 -22 5 -29 -6 36 -12 30 14 -44 20 -38 21 -45 -27 39 28 -46 34 -40 35 -47 0
-3 15 4 -22 5 -29 -6 36 -12 30 14 -44 20 -38 21 -45 -27 39 28 -46 34 -40 35 -47 0
-3 -15 4 -22 5 -29 -6 36 -12 30 14 -44 20 -38 21 -45 -27 39 28 -46 34 -40 35 -47 0
3 -15 4 -22 5 -29 -6 36 -12 30 14 -44 20 -38 21 -45 -27 39 28 -46 34 -40 35 -47 0
-3 15 -4 22 5 -29 -6 36 -12 30 14 -44 20 -38 21 -45 -27 39 28 -46 34 -40 35 -47 0
-3 -15 -4 22 5 -29 -6 36 -12 30 14 -44 20 -38 21 -45 -27 39 28 -46 34 -40 35 -47 0
3 -15 -4 22 5 -29 -6 36 -12 30 14 -44 20 -38 21 -45 -27 39 28 -46 34 -40 35 -47 0
-3 15 -4 -22 -5 29 -6 36 -12 30 14 -44 20 -38 21 -45 -27 39 28 -46 34 -40 35 -47 0
-3 -15 -4 -22 -5 29 -6 36 -12 30 14 -44 20 -38 21 -45 -27 39 28 -46 34 -40 35 -47 0
3 -15 -4 -22 -5 29 -6 36 -12 30 14 -44 20 -38 21 -45 -27 39 28 -46 34 -40 35 -47 0
-3 15 4 -22 -5 29 -6 36 -12 30 14 -44 20 -38 21 -45 -27 39 28 -46 34 -40 35 -47 0
-3 -15 4 -22 -5 29 -6 36 -12 30 14 -44 20 -38 21 -45 -27 39 28 -46 34 -40 35 -47 0
3 -15 4 -22 -5 29 -6 36 -12 30 14 -44 20 -38 21 -45 -27 39 28 -46 34 -40 35 -47 0
-3 15 -4 22 -5 29 -6 36 -12 30 14 -44 20 -38 21 -45 -27 39 28 -46 34 -40 35 -47 0
-3 -15 -4 22 -5 29 -6 36 -12 30 14 -44 20 -38 21 -45 -27 39 28 -46 34 -40 35 -47 0
3 -15 -4 22 -5 29 -6 36 -12 30 14 -44 20 -38 21 -45 -27 39 28 -46 34 -40 35 -47 0
-3 15 -4 -22 5 -29 6 -36 -12 30 14 -44 20 -38 21 -45 -27 39 28 -46 34 -40 35 -47 0
-3 -15 -4 -22 5 -29 6 -36 -12 30 14 -44 20 -38 21 -45 -27 39 28 -46 34 -40 35 -47 0
3 -15 -4 -22 5 -29 6 -36 -12 30 14 -44 20 -38 21 -45 -27 39 28 -46 34 -40 35 -47 0
-3 15 4 -22 5 -29 6 -36 -12 30 14 -44 20 -38 21 -45 -27 39 28 -46 34 -40 35 -47 0
-3 -15 4 -22 5 -29 6 -36 -12 30 14 -44 20 -38 21 -45 -27 39 28 -46 34 -40 35 -47 0
3 -15 4 -22 5 -29 6 -36 -12 30 14 -44 20 -38 21 -45 -27 39 28 -46 34 -40 35 -47 0
-3 15 -4 22 5 -29 6 -36 -12 30 14 -44 20 -38 21 -45 -27 39 28 -46 34 -40 35 -47 0
-3 -15 -4 22 5 -29 6 -36 -12 30 14 -44 20 -38 21 -45 -27 39 28 -46 34 -40 35 -47 0
3 -15 -4 22 5 -29 6 -36 -12 30 14 -44 20 -38 21 -45 -27 39 28 -46 34 -40 35 -47 0
-3 15 -4 -22 -5 29 6 -36 -12 30 14 -44 20 -38 21 -45 -27 39 28 -46 34 -40 35 -47 0
-3 -15 -4 -22 -5 29 6 -36 -12 30 14 -44 20 -38 21 -45 -27 39 28 -46 34 -40 35 -47 0
3 -15 -4 -22 -5 29 6 -36 -12 30 14 -44 20 -38 21 -45 -27 39 28 -46 34 -40 35 -47 0
-3 15 4 -22 -5 29 6 -36 -12 30 14 -44 20 -38 21 -45 -27 39 28 -46 34 -40 35 -47 0
-3 -15 4 -22 -5 29 6 -36 -12 30 14 -44 20 -38 21 -45 -27 39 28 -46 34 -40 35 -47 0
3 -15 4 -22 -5 29 6 -36 -12 30 14 -44 20 -38 21 -45 -27 39 28 -46 34 -40 35 -47 0
-3 15 -4 22 -5 29 6 -36 -12 30 14 -44 20 -38 21 -45 -27 39 28 -46 34 -40 35 -47 0
-3 -15 -4 22 -5 29 6 -36 -12 30 14 -44 20 -38 21 -45 -27 39 28 -46 34 -40 35 -47 0
3 -15 -4 22 -5 29 6 -36 -12 30 14 -44 20 -38 21 -45 -27 39 28 -46 34 -40 35 -47 0
-3 15 -4 -22 5 -29 -6 36 12 -30 -14 44 -20 38 -21 45 -27 39 -28 46 34 -40 35 -47 0
-3 -15 -4 -22 5 -29 -6 36 12 -30 -14 44 -20 38 -21 45 -27 39 -28 46 34 -40 35 -47 0
3 -15 -4 -22 5 -29 -6 36 12 -30 -14 44 -20 38 -21 45 -27 39 -28 46 34 -40 35 -47 0
-3 15 4 -22 5 -29 -6 36 12 -30 -14 44 -20 38 -21 45 -27 39 -28 46 34 -40 35 -47 0
-3 -15 4 -22 5 -29 -6 36 12 -30 -14 44 -20 38 -21 45 -27 39 -28 46 34 -40 35 -47 0
3 -15 4 -22 5 -29 -6 36 12 -30 -14 44 -20 38 -21 45 -27 39 -28 46 34 -40 35 -47 0
-3 15 -4 22 5 -29 -6 36 12 -30 -14 44 -20 38 -21 45 -27 39 -28 46 34 -40 35 -47 0
-3 -15 -4 22 5 -29 -6 36 12 -30 -14 44 -20 38 -21 45 -27 39 -28 46 34 -40 35 -47 0
3 -15 -4 22 5 -29 -6 36 12 -30 -14 44 -20 38 -21 45 -27 39 -28 46 34 -40 35 -47 0
-3 15 -4 -22 -5 29 -6 36 12 -30 -14 44 -20 38 -21 45 -27 39 -28 46 34 -40 35 -47 0
-3 -15 -4 -22 -5 29 -6 36 12 -30 -14 44 -20 38 -21 45 -27 39 -28 46 34 -40 35 -47 0
3 -15 -4 -22 -5 29 -6 36 12 -30 -14 44 -20 38 -21 45 -27 39 -28 46 34 -40 35 -47 0
-3 15 4 -22 -5 29 -6 36 12 -30 -14 44 -20 38 -21 45 -27 39 -28 46 34 -40 35 -47 0
-3 -15 4 -22 -5 29 -6 36 12 -30 -14 44 -20 38 -21 45 -27 39 -28 46 34 -40 35 -47 0
3 -15 4 -22 -5 29 -6 36 12 -30 -14 44 -20 38 -21 45 -27 39 -28 46 34 -40 35 -47 0
-3 15 -4 22 -5 29 -6 36 12 -30 -14 44 -20 38 -21 45 -27 39 -28 46 34 -40 35 -47 0
-3 -15 -4 22 -5 29 -6 36 12 -30 -14 44 -20 38 -21 45 -27 39 -28 46 34 -40 35 -47 0
3 -15 -4 22 -5 29 -6 36 12 -30 -14 44 -20 38 -21 45 -27 39 -28 46 34 -40 35 -47 0
-3 15 -4 -22 5 -29 6 -36 12 -30 -14 44 -20 38 -21 45 -27 39 -28 46 34 -40 35 -47 0
-3 -15 -4 -22 5 -29 6 -36 12 -30 -14 44 -20 38 -21 45 -27 39 -28 46 34 -40 35 -47 0
3 -15 -4 -22 5 -29 6 -36 12 -30 -14 44 -20 38 -21 45 -27 39 -28 46 34 -40 35 -47 0
-3 15 4 -22 5 -29 6 -36 12 -30 -14 44 -20 38 -21 45 -27 39 -28 46 34 -40 35 -47 0
-3 -15 4 -22 5 -29 6 -36 12 -30 -14 44 -20 38 -21 45 -27 39 -28 46 34 -40 35 -47 0
3 -15 4 -22 5 -29 6 -36 12 -30 -14 44 -20 38 -21 45 -27 39 -28 46 34 -40 35 -47 0
-3 15 -4 22 5 -29 6 -36 12 -30 -14 44 -20 38 -21 45 -27 39 -28 46 34 -40 35 -47 0
-3 -15 -4 22 5 -29 6 -36 12 -30 -14 44 -20 38 -21 45 -27 39 -28 46 34 -40 35 -47 0
3 -15 -4 22 5 -29 6 -36 12 -30 -14 44 -20 38 -21 45 -27 39 -28 46 34 -40 35 -47 0
-3 15 -4 -22 -5 29 6 -36 12 -30 -14 44 -20 38 -21 45 -27 39 -28 46 34 -40 35 -47 0
-3 -15 -4 -22 -5 29 6 -36 12 -30 -14 44 -20 38 -21 45 -27 39 -28 46 34 -40 35 -47 0
3 -15 -4 -22 -5 29 6 -36 12 -30 -14 44 -20 38 -21 45 -27 39 -28 46 34 -40 35 -47 0
-3 15 4 -22 -5 29 6 -36 12 -30 -14 44 -20 38 -21 45 -27 39 -28 46 34 -40 35 -47 0
-3 -15 4 -22 -5 29 6 -36 12 -30 -14 44 -20 38 -21 45 -27 39 -28 46 34 -40 35 -47 0
3 -15 4 -22 -5 29 6 -36 12 -30 -14 44 -20 38 -21 45 -27 39 -28 46 34 -40 35 -47 0
-3 15 -4 22 -5 29 6 -36 12 -30 -14 44 -20 38 -21 45 -27 39 -28 46 34 -40 35 -47 0
-3 -15 -4 22 -5 29 6 -36 12 -30 -14 44 -20 38 -21 45 -27 39 -28 46 34 -40 35 -47 0
3 -15 -4 22 -5 29 6 -36 12 -30 -14 44 -20 38 -21 45 -27 39 -28 46 34 -40 35 -47 0
-3 15 -4 -22 5 -29 -6 36 -12 30 -14 44 -20 38 -21 45 -27 39 -28 46 34 -40 35 -47 0
-3 -15 -4 -22 5 -29 -6 36 -12 30 -14 44 -20 38 -21 45 -27 39 -28 46 34 -40 35 -47 0
3 -15 -4 -22 5 -29 -6 36 -12 30 -14 44 -20 38 -21 45 -27 39 -28 46 34 -40 35 -47 0
-3 15 4 -22 5 -29 -6 36 -12 30 -14 44 -20 38 -21 45 -27 39 -28 46 34 -40 35 -47 0
-3 -15 4 -22 5 -29 -6 36 -12 30 -14 44 -20 38 -21 45 -27 39 -28 46 34 -40 35 -47 0
3 -15 4 -22 5 -29 -6 36 -12 30 -14 44 -20 38 -21 45 -27 39 -28 46 34 -40 35 -47 0
-3 15 -4 22 5 -29 -6 36 -12 30 -14 44 -20 38 -21 45 -27 39 -28 46 34 -40 35 -47 0
-3 -15 -4 22 5 -29 -6 36 -12 30 -14 44 -20 38 -21 45 -27 39 -28 46 34 -40 35 -47 0
3 -15 -4 22 5 -29 -6 36 -12 30 -14 44 -20 38 -21 45 -27 39 -28 46 34 -40 35 -47 0
-3 15 -4 -22 -5 29 -6 36 -12 30 -14 44 -20 38 -21 45 -27 39 -28 46 34 -40 35 -47 0
-3 -15 -4 -22 -5 29 -6 36 -12 30 -14 44 -20 38 -21 45 -27 39 -28 46 34 -40 35 -47 0
3 -15 -4 -22 -5 29 -6 36 -12 30 -14 44 -20 38 -21 45 -27 39 -28 46 34 -40 35 -47 0
-3 15 4 -22 -5 29 -6 36 -12 30 -14 44 -20 38 -21 45 -27 39 -28 46 34 -40 35 -47 0
-3 -15 4 -22 -5 29 -6 36 -12 30 -14 44 -20 38 -21 45 -27 39 -28 46 34 -40 35 -47 0
3 -15 4 -22 -5 29 -6 36 -12 30 -14 44 -20 38 -21 45 -27 39 -28 46 34 -40 35 -47 0
-3 15 -4 22 -5 29 -6 36 -12 30 -14 44 -20 38 -21 45 -27 39 -28 46 34 -40 35 -47 0
-3 -15 -4 22 -5 29 -6 36 -12 30 -14 44 -20 38 -21 45 -27 39 -28 46 34 -40 35 -47 0
3 -15 -4 22 -5 29 -6 36 -12 30 -14 44 -20 38 -21 45 -27 39 -28 46 34 -40 35 -47 0
-3 15 -4 -22 5 -29 6 -36 -12 30 -14 44 -20 38 -21 45 -27 39 -28 46 34 -40 35 -47 0
-3 -15 -4 -22 5 -29 6 -36 -12 30 -14 44 -20 38 -21 45 -27 39 -28 46 34 -40 35 -47 0
3 -15 -4 -22 5 -29 6 -36 -12 30 -14 44 -20 38 -21 45 -27 39 -28 46 34 -40 35 -47 0
-3 15 4 -22 5 -29 6 -36 -12 30 -14 44 -20 38 -21 45 -27 39 -28 46 34 -40 35 -47 0
-3 -15 4 -22 5 -29 6 -36 -12 30 -14 44 -20 38 -21 45 -27 39 -28 46 34 -40 35 -47 0
3 -15 4 -22 5 -29 6 -36 -12 30 -14 44 -20 38 -21 45 -27 39 -28 46 34 -40 35 -47 0
-3 15 -4 22 5 -29 6 -36 -12 30 -14 44 -20 38 -21 45 -27 39 -28 46 34 -40 35 -47 0
-3 -15 -4 22 5 -29 6 -36 -12 30 -14 44 -20 38 -21 45 -27 39 -28 46 34 -40 35 -47 0
3 -15 -4 22 5 -29 6 -36 -12 30 -14 44 -20 38 -21 45 -27 39 -28 46 34 -40 35 -47 0
-3 15 -4 -22 -5 29 6 -36 -12 30 -14 44 -20 38 -21 45 -27 39 -28 46 34 -40 35 -47 0
-3 -15 -4 -22 -5 29 6 -36 -12 30 -14 44 -20 38 -21 45 -27 39 -28 46 34 -40 35 -47 0
3 -15 -4 -22 -5 29 6 -36 -12 30 -14 44 -20 38 -21 45 -27 39 -28 46 34 -40 35 -47 0
-3 15 4 -22 -5 29 6 -36 -12 30 -14 44 -20 38 -21 45 -27 39 -28 46 34 -40 35 -47 0
-3 -15 4 -22 -5 29 6 -36 -12 30 -14 44 -20 38 -21 45 -27 39 -28 46 34 -40 35 -47 0
3 -15 4 -22 -5 29 6 -36 -12 30 -14 44 -20 38 -21 45 -27 39 -28 46 34 -40 35 -47 0
-3 15 -4 22 -5 29 6 -36 -12 30 -14 44 -20 38 -21 45 -27 39 -28 46 34 -40 35 -47 0
-3 -15 -4 22 -5 29 6 -36 -12 30 -14 44 -20 38 -21 45 -27 39 -28 46 34 -40 35 -47 0
3 -15 -4 22 -5 29 6 -36 -12 30 -14 44 -20 38 -21 45 -27 39 -28 46 34 -40 35 -47 0
-3 15 -4 -22 5 -29 -6 36 12 -30 14 -44 -20 38 -21 45 -27 39 -28 46 34 -40 35 -47 0
-3 -15 -4 -22 5 -29 -6 36 12 -30 14 -44 -20 38 -21 45 -27 39 -28 46 34 -40 35 -47 0
3 -15 -4 -22 5 -29 -6 36 12 -30 14 -44 -20 38 -21 45 -27 39 -28 46 34 -40 35 -47 0
-3 15 4 -22 5 -29 -6 36 12 -30 14 -44 -20 38 -21 45 -27 39 -28 46 34 -40 35 -47 0
-3 -15 4 -22 5 -29 -6 36 12 -30 14 -44 -20 38 -21 45 -27 39 -28 46 34 -40 35 -47 0
3 -15 4 -22 5 -29 -6 36 12 -30 14 -44 -20 38 -21 45 -27 39 -28 46 34 -40 35 -47 0
-3 15 -4 22 5 -29 -6 36 12 -30 14 -44 -20 38 -21 45 -27 39 -28 46 34 -40 35 -47 0
-3 -15 -4 22 5 -29 -6 36 12 -30 14 -44 -20 38 -21 45 -27 39 -28 46 34 -40 35 -47 0
3 -15 -4 22 5 -29 -6 36 12 -30 14 -44 -20 38 -21 45 -27 39 -28 46 34 -40 35 -47 0
-3 15 -4 -22 -5 29 -6 36 12 -30 14 -44 -20 38 -21 45 -27 39 -28 46 34 -40 35 -47 0
-3 -15 -4 -22 -5 29 -6 36 12 -30 14 -44 -20 38 -21 45 -27 39 -28 46 34 -40 35 -47 0
3 -15 -4 -22 -5 29 -6 36 12 -30 14 -44 -20 38 -21 45 -27 39 -28 46 34 -40 35 -47 0
-3 15 4 -22 -5 29 -6 36 12 -30 14 -44 -20 38 -21 45 -27 39 -28 46 34 -40 35 -47 0
-3 -15 4 -22 -5 29 -6 36 12 -30 14 -44 -20 38 -21 45 -27 39 -28 46 34 -40 35 -47 0
3 -15 4 -22 -5 29 -6 36 12 -30 14 -44 -20 38 -21 45 -27 39 -28 46 34 -40 35 -47 0
-3 15 -4 22 -5 29 -6 36 12 -30 14 -44 -20 38 -21 45 -27 39 -28 46 34 -40 35 -47 0
-3 -15 -4 22 -5 29 -6 36 12 -30 14 -44 -20 38 -21 45 -27 39 -28 46 34 -40 35 -47 0
3 -15 -4 22 -5 29 -6 36 12 -30 14 -44 -20 38 -21 45 -27 39 -28 46 34 -40 35 -47 0
-3 15 -4 -22 5 -29 6 -36 12 -30 14 -44 -20 38 -21 45 -27 39 -28 46 34 -40 35 -47 0
-3 -15 -4 -22 5 -29 6 -36 12 -30 14 -44 -20 38 -21 45 -27 39 -28 46 34 -40 35 -47 0
3 -15 -4 -22 5 -29 6 -36 12 -30 14 -44 -20 38 -21 45 -27 39 -28 46 34 -40 35 -47 0
-3 15 4 -22 5 -29 6 -36 12 -30 14 -44 -20 38 -21 45 -27 39 -28 46 34 -40 35 -47 0
-3 -15 4 -22 5 -29 6 -36 12 -30 14 -44 -20 38 -21 45 -27 39 -28 46 34 -40 35 -47 0
3 -15 4 -22 5 -29 6 -36 12 -30 14 -44 -20 38 -21 45 -27 39 -28 46 34 -40 35 -47 0
-3 15 -4 22 5 -29 6 -36 12 -30 14 -44 -20 38 -21 45 -27 39 -28 46 34 -40 35 -47 0
-3 -15 -4 22 5 -29 6 -36 12 -30 14 -44 -20 38 -21 45 -27 39 -28 46 34 -40 35 -47 0
3 -15 -4 22 5 -29 6 -36 12 -30 14 -44 -20 38 -21 45 -27 39 -28 46 34 -40 35 -47 0
-3 15 -4 -22 -5 29 6 -36 12 -30 14 -44 -20 38 -21 45 -27 39 -28 46 34 -40 35 -47 0
-3 -15 -4 -22 -5 29 6 -36 12 -30 14 -44 -20 38 -21 45 -27 39 -28 46 34 -40 35 -47 0
3 -15 -4 -22 -5 29 6 -36 12 -30 14 -44 -20 38 -21 45 -27 39 -28 46 34 -40 35 -47 0
-3 15 4 -22 -5 29 6 -36 12 -30 14 -44 -20 38 -21 45 -27 39 -28 46 34 -40 35 -47 0
-3 -15 4 -22 -5 29 6 -36 12 -30 14 -44 -20 38 -21 45 -27 39 -28 46 34 -40 35 -47 0
3 -15 4 -22 -5 29 6 -36 12 -30 14 -44 -20 38 -21 45 -27 39 -28 46 34 -40 35 -47 0
-3 15 -4 22 -5 29 6 -36 12 -30 14 -44 -20 38 -21 45 -27 39 -28 46 34 -40 35 -47 0
-3 -15 -4 22 -5 29 6 -36 12 -30 14 -44 -20 38 -21 45 -27 39 -28 46 34 -40 35 -47 0
3 -15 -4 22 -5 29 6 -36 12 -30 14 -44 -20 38 -21 45 -27 39 -28 46 34 -40 35 -47 0
-3 15 -4 -22 5 -29 -6 36 -12 30 14 -44 -20 38 -21 45 -27 39 -28 46 34 -40 35 -47 0
-3 -15 -4 -22 5 -29 -6 36 -12 30 14 -44 -20 38 -21 45 -27 39 -28 46 34 -40 35 -47 0
3 -15 -4 -22 5 -29 -6 36 -12 30 14 -44 -20 38 -21 45 -27 39 -28 46 34 -40 35 -47 0
-3 15 4 -22 5 -29 -6 36 -12 30 14 -44 -20 38 -21 45 -27 39 -28 46 34 -40 35 -47 0
-3 -15 4 -22 5 -29 -6 36 -12 30 14 -44 -20 38 -21 45 -27 39 -28 46 34 -40 35 -47 0
3 -15 4 -22 5 -29 -6 36 -12 30 14 -44 -20 38 -21 45 -27 39 -28 46 34 -40 35 -47 0
-3 15 -4 22 5 -29 -6 36 -12 30 14 -44 -20 38 -21 45 -27 39 -28 46 34 -40 35 -47 0
-3 -15 -4 22 5 -29 -6 36 -12 30 14 -44 -20 38 -21 45 -27 39 -28 46 34 -40 35 -47 0
3 -15 -4 22 5 -29 -6 36 -12 30 14 -44 -20 38 -21 45 -27 39 -28 46 34 -40 35 -47 0
-3 15 -4 -22 -5 29 -6 36 -12 30 14 -44 -20 38 -21 45 -27 39 -28 46 34 -40 35 -47 0
-3 -15 -4 -22 -5 29 -6 36 -12 30 14 -44 -20 38 -21 45 -27 39 -28 46 34 -40 35 -47 0
3 -15 -4 -22 -5 29 -6 36 -12 30 14 -44 -20 38 -21 45 -27 39 -28 46 34 -40 35 -47 0
-3 15 4 -22 -5 29 -6 36 -12 30 14 -44 -20 38 -21 45 -27 39 -28 46 34 -40 35 -47 0
-3 -15 4 -22 -5 29 -6 36 -12 30 14 -44 -20 38 -21 45 -27 39 -28 46 34 -40 35 -47 0
3 -15 4 -22 -5 29 -6 36 -12 30 14 -44 -20 38 -21 45 -27 39 -28 46 34 -40 35 -47 0
-3 15 -4 22 -5 29 -6 36 -12 30 14 -44 -20 38 -21 45 -27 39 -28 46 34 -40 35 -47 0
-3 -15 -4 22 -5 29 -6 36 -12 30 14 -44 -20 38 -21 45 -27 39 -28 46 34 -40 35 -47 0
3 -15 -4 22 -5 29 -6 36 -12 30 14 -44 -20 38 -21 45 -27 39 -28 46 34 -40 35 -47 0
-3 15 -4 -22 5 -29 6 -36 -12 30 14 -44 -20 38 -21 45 -27 39 -28 46 34 -40 35 -47 0
-3 -15 -4 -22 5 -29 6 -36 -12 30 14 -44 -20 38 -21 45 -27 39 -28 46 34 -40 35 -47 0
3 -15 -4 -22 5 -29 6 -36 -12 30 14 -44 -20 38 -21 45 -27 39 -28 46 34 -40 35 -47 0
-3 15 4 -22 5 -29 6 -36 -12 30 14 -44 -20 38 -21 45 -27 39 -28 46 34 -40 35 -47 0
-3 -15 4 -22 5 -29 6 -36 -12 30 14 -44 -20 38 -21 45 -27 39 -28 46 34 -40 35 -47 0
3 -15 4 -22 5 -29 6 -36 -12 30 14 -44 -20 38 -21 45 -27 39 -28 46 34 -40 35 -47 0
-3 15 -4 22 5 -29 6 -36 -12 30 14 -44 -20 38 -21 45 -27 39 -28 46 34 -40 35 -47 0
-3 -15 -4 22 5 -29 6 -36 -12 30 14 -44 -20 38 -21 45 -27 39 -28 46 34 -40 35 -47 0
3 -15 -4 22 5 -29 6 -36 -12 30 14 -44 -20 38 -21 45 -27 39 -28 46 34 -40 35 -47 0
-3 15 -4 -22 -5 29 6 -36 -12 30 14 -44 -20 38 -21 45 -27 39 -28 46 34 -40 35 -47 0
-3 -15 -4 -22 -5 29 6 -36 -12 30 14 -44 -20 38 -21 45 -27 39 -28 46 34 -40 35 -47 0
3 -15 -4 -22 -5 29 6 -36 -12 30 14 -44 -20 38 -21 45 -27 39 -28 46 34 -40 35 -47 0
-3 15 -4 22 -5 29 6 -36 -12 30 14 -44 -20 38 -21 45 -27 39 -28 46 34 -40 35 -47 0
-3 -15 -4 22 -5 29 6 -36 -12 30 14 -44 -20 38 -21 45 -27 39 -28 46 34 -40 35 -47 0
3 -15 -4 22 -5 29 6 -36 -12 30 14 -44 -20 38 -21 45 -27 39 -28 46 34 -40 35 -47 0
-3 15 4 -22 -5 29 6 -36 -12 30 14 -44 -20 38 -21 45 -27 39 -28 46 34 -40 35 -47 0
-3 -15 4 -22 -5 29 6 -36 -12 30 14 -44 -20 38 -21 45 -27 39 -28 46 34 -40 35 -47 0
3 -15 4 -22 -5 29 6 -36 -12 30 14 -44 -20 38 -21 45 -27 39 -28 46 34 -40 35 -47 0
-3 15 -4 -22 5 -29 -6 36 12 -30 -14 44 20 -38 -21 45 -27 39 -28 46 34 -40 35 -47 0
-3 -15 -4 -22 5 -29 -6 36 12 -30 -14 44 20 -38 -21 45 -27 39 -28 46 34 -40 35 -47 0
3 -15 -4 -22 5 -29 -6 36 12 -30 -14 44 20 -38 -21 45 -27 39 -28 46 34 -40 35 -47 0
-3 15 4 -22 5 -29 -6 36 12 -30 -14 44 20 -38 -21 45 -27 39 -28 46 34 -40 35 -47 0
-3 -15 4 -22 5 -29 -6 36 12 -30 -14 44 20 -38 -21 45 -27 39 -28 46 34 -40 35 -47 0
3 -15 4 -22 5 -29 -6 36 12 -30 -14 44 20 -38 -21 45 -27 39 -28 46 34 -40 35 -47 0
-3 15 -4 22 5 -29 -6 36 12 -30 -14 44 20 -38 -21 45 -27 39 -28 46 34 -40 35 -47 0
-3 -15 -4 22 5 -29 -6 36 12 -30 -14 44 20 -38 -21 45 -27 39 -28 46 34 -40 35 -47 0
3 -15 -4 22 5 -29 -6 36 12 -30 -14 44 20 -38 -21 45 -27 39 -28 46 34 -40 35 -47 0
-3 15 -4 -22 -5 29 -6 36 12 -30 -14 44 20 -38 -21 45 -27 39 -28 46 34 -40 35 -47 0
-3 -15 -4 -22 -5 29 -6 36 12 -30 -14 44 20 -38 -21 45 -27 39 -28 46 34 -40 35 -47 0
3 -15 -4 -22 -5 29 -6 36 12 -30 -14 44 20 -38 -21 45 -27 39 -28 46 34 -40 35 -47 0
-3 15 4 -22 -5 29 -6 36 12 -30 -14 44 20 -38 -21 45 -27 39 -28 46 34 -40 35 -47 0
-3 -15 4 -22 -5 29 -6 36 12 -30 -14 44 20 -38 -21 45 -27 39 -28 46 34 -40 35 -47 0
3 -15 4 -22 -5 29 -6 36 12 -30 -14 44 20 -38 -21 45 -27 39 -28 46 34 -40 35 -47 0
-3 15 -4 22 -5 29 -6 36 12 -30 -14 44 20 -38 -21 45 -27 39 -28 46 34 -40 35 -47 0
-3 -15 -4 22 -5 29 -6 36 12 -30 -14 44 20 -38 -21 45 -27 39 -28 46 34 -40 35 -47 0
3 -15 -4 22 -5 29 -6 36 12 -30 -14 44 20 -38 -21 45 -27 39 -28 46 34 -40 35 -47 0
-3 15 -4 -22 5 -29 -6 36 -12 30 -14 44 20 -38 -21 45 -27 39 -28 46 34 -40 35 -47 0
-3 -15 -4 -22 5 -29 -6 36 -12 30 -14 44 20 -38 -21 45 -27 39 -28 46 34 -40 35 -47 0
3 -15 -4 -22 5 -29 -6 36 -12 30 -14 44 20 -38 -21 45 -27 39 -28 46 34 -40 35 -47 0
-3 15 -4 22 5 -29 -6 36 -12 30 -14 44 20 -38 -21 45 -27 39 -28 46 34 -40 35 -47 0
-3 -15 -4 22 5 -29 -6 36 -12 30 -14 44 20 -38 -21 45 -27 39 -28 46 34 -40 35 -47 0
3 -15 -4 22 5 -29 -6 36 -12 30 -14 44 20 -38 -21 45 -27 39 -28 46 34 -40 35 -47 0
-3 15 -4 -22 -5 29 -6 36 -12 30 -14 44 20 -38 -21 45 -27 39 -28 46 34 -40 35 -47 0
-3 -15 -4 -22 -5 29 -6 36 -12 30 -14 44 20 -38 -21 45 -27 39 -28 46 34 -40 35 -47 0
3 -15 -4 -22 -5 29 -6 36 -12 30 -14 44 20 -38 -21 45 -27 39 -28 46 34 -40 35 -47 0
-3 15 -4 22 -5 29 -6 36 -12 30 -14 44 20 -38 -21 45 -27 39 -28 46 34 -40 35 -47 0
-3 -15 -4 22 -5 29 -6 36 -12 30 -14 44 20 -38 -21 45 -27 39 -28 46 34 -40 35 -47 0
3 -15 -4 22 -5 29 -6 36 -12 30 -14 44 20 -38 -21 45 -27 39 -28 46 34 -40 35 -47 0
-3 15 4 -22 5 -29 -6 36 -12 30 -14 44 20 -38 -21 45 -27 39 -28 46 34 -40 35 -47 0
-3 -15 4 -22 5 -29 -6 36 -12 30 -14 44 20 -38 -21 45 -27 39 -28 46 34 -40 35 -47 0
3 -15 4 -22 5 -29 -6 36 -12 30 -14 44 20 -38 -21 45 -27 39 -28 46 34 -40 35 -47 0
-3 15 4 -22 -5 29 -6 36 -12 30 -14 44 20 -38 -21 45 -27 39 -28 46 34 -40 35 -47 0
-3 -15 4 -22 -5 29 -6 36 -12 30 -14 44 20 -38 -21 45 -27 39 -28 46 34 -40 35 -47 0
3 -15 4 -22 -5 29 -6 36 -12 30 -14 44 20 -38 -21 45 -27 39 -28 46 34 -40 35 -47 0
-3 15 -4 -22 5 -29 6 -36 12 -30 -14 44 20 -38 -21 45 -27 39 -28 46 34 -40 35 -47 0
-3 -15 -4 -22 5 -29 6 -36 12 -30 -14 44 20 -38 -21 45 -27 39 -28 46 34 -40 35 -47 0
3 -15 -4 -22 5 -29 6 -36 12 -30 -14 44 20 -38 -21 45 -27 39 -28 46 34 -40 35 -47 0
-3 15 -4 -22 -5 29 6 -36 12 -30 -14 44 20 -38 -21 45 -27 39 -28 46 34 -40 35 -47 0
-3 -15 -4 -22 -5 29 6 -36 12 -30 -14 44 20 -38 -21 45 -27 39 -28 46 34 -40 35 -47 0
3 -15 -4 -22 -5 29 6 -36 12 -30 -14 44 20 -38 -21 45 -27 39 -28 46 34 -40 35 -47 0
-3 15 -4 22 5 -29 6 -36 12 -30 -14 44 20 -38 -21 45 -27 39 -28 46 34 -40 35 -47 0
-3 -15 -4 22 5 -29 6 -36 12 -30 -14 44 20 -38 -21 45 -27 39 -28 46 34 -40 35 -47 0
3 -15 -4 22 5 -29 6 -36 12 -30 -14 44 20 -38 -21 45 -27 39 -28 46 34 -40 35 -47 0
-3 15 -4 22 -5 29 6 -36 12 -30 -14 44 20 -38 -21 45 -27 39 -28 46 34 -40 35 -47 0
-3 -15 -4 22 -5 29 6 -36 12 -30 -14 44 20 -38 -21 45 -27 39 -28 46 34 -40 35 -47 0
3 -15 -4 22 -5 29 6 -36 12 -30 -14 44 20 -38 -21 45 -27 39 -28 46 34 -40 35 -47 0
-3 15 4 -22 5 -29 6 -36 12 -30 -14 44 20 -38 -21 45 -27 39 -28 46 34 -40 35 -47 0
-3 -15 4 -22 5 -29 6 -36 12 -30 -14 44 20 -38 -21 45 -27 39 -28 46 34 -40 35 -47 0
3 -15 4 -22 5 -29 6 -36 12 -30 -14 44 20 -38 -21 45 -27 39 -28 46 34 -40 35 -47 0
-3 15 4 -22 -5 29 6 -36 12 -30 -14 44 20 -38 -21 45 -27 39 -28 46 34 -40 35 -47 0
-3 -15 4 -22 -5 29 6 -36 12 -30 -14 44 20 -38 -21 45 -27 39 -28 46 34 -40 35 -47 0
3 -15 4 -22 -5 29 6 -36 12 -30 -14 44 20 -38 -21 45 -27 39 -28 46 34 -40 35 -47 0
-3 15 -4 -22 5 -29 6 -36 -12 30 -14 44 20 -38 -21 45 -27 39 -28 46 34 -40 35 -47 0
-3 -15 -4 -22 5 -29 6 -36 -12 30 -14 44 20 -38 -21 45 -27 39 -28 46 34 -40 35 -47 0
3 -15 -4 -22 5 -29 6 -36 -12 30 -14 44 20 -38 -21 45 -27 39 -28 46 34 -40 35 -47 0
-3 15 -4 -22 -5 29 6 -36 -12 30 -14 44 20 -38 -21 45 -27 39 -28 46 34 -40 35 -47 0
-3 -15 -4 -22 -5 29 6 -36 -12 30 -14 44 20 -38 -21 45 -27 39 -28 46 34 -40 35 -47 0
3 -15 -4 -22 -5 29 6 -36 -12 30 -14 44 20 -38 -21 45 -27 39 -28 46 34 -40 35 -47 0
-3 15 -4 22 5 -29 6 -36 -12 30 -14 44 20 -38 -21 45 -27 39 -28 46 34 -40 35 -47 0
-3 -15 -4 22 5 -29 6 -36 -12 30 -14 44 20 -38 -21 45 -27 39 -28 46 34 -40 35 -47 0
3 -15 -4 22 5 -29 6 -36 -12 30 -14 44 20 -38 -21 45 -27 39 -28 46 34 -40 35 -47 0
-3 15 -4 22 -5 29 6 -36 -12 30 -14 44 20 -38 -21 45 -27 39 -28 46 34 -40 35 -47 0
-3 -15 -4 22 -5 29 6 -36 -12 30 -14 44 20 -38 -21 45 -27 39 -28 46 34 -40 35 -47 0
3 -15 -4 22 -5 29 6 -36 -12 30 -14 44 20 -38 -21 45 -27 39 -28 46 34 -40 35 -47 0
-3 15 4 -22 5 -29 6 -36 -12 30 -14 44 20 -38 -21 45 -27 39 -28 46 34 -40 35 -47 0
-3 -15 4 -22 5 -29 6 -36 -12 30 -14 44 20 -38 -21 45 -27 39 -28 46 34 -40 35 -47 0
3 -15 4 -22 5 -29 6 -36 -12 30 -14 44 20 -38 -21 45 -27 39 -28 46 34 -40 35 -47 0
-3 15 4 -22 -5 29 6 -36 -12 30 -14 44 20 -38 -21 45 -27 39 -28 46 34 -40 35 -47 0
-3 -15 4 -22 -5 29 6 -36 -12 30 -14 44 20 -38 -21 45 -27 39 -28 46 34 -40 35 -47 0
3 -15 4 -22 -5 29 6 -36 -12 30 -14 44 20 -38 -21 45 -27 39 -28 46 34 -40 35 -47 0
-3 15 -4 -22 5 -29 -6 36 12 -30 14 -44 20 -38 -21 45 -27 39 -28 46 34 -40 35 -47 0
-3 -15 -4 -22 5 -29 -6 36 12 -30 14 -44 20 -38 -21 45 -27 39 -28 46 34 -40 35 -47 0
3 -15 -4 -22 5 -29 -6 36 12 -30 14 -44 20 -38 -21 45 -27 39 -28 46 34 -40 35 -47 0
-3 15 -4 -22 -5 29 -6 36 12 -30 14 -44 20 -38 -21 45 -27 39 -28 46 34 -40 35 -47 0
-3 -15 -4 -22 -5 29 -6 36 12 -30 14 -44 20 -38 -21 45 -27 39 -28 46 34 -40 35 -47 0
3 -15 -4 -22 -5 29 -6 36 12 -30 14 -44 20 -38 -21 45 -27 39 -28 46 34 -40 35 -47 0
-3 15 -4 22 5 -29 -6 36 12 -30 14 -44 20 -38 -21 45 -27 39 -28 46 34 -40 35 -47 0
-3 -15 -4 22 5 -29 -6 36 12 -30 14 -44 20 -38 -21 45 -27 39 -28 46 34 -40 35 -47 0
3 -15 -4 22 5 -29 -6 36 12 -30 14 -44 20 -38 -21 45 -27 39 -28 46 34 -40 35 -47 0
-3 15 -4 22 -5 29 -6 36 12 -30 14 -44 20 -38 -21 45 -27 39 -28 46 34 -40 35 -47 0
-3 -15 -4 22 -5 29 -6 36 12 -30 14 -44 20 -38 -21 45 -27 39 -28 46 34 -40 35 -47 0
3 -15 -4 22 -5 29 -6 36 12 -30 14 -44 20 -38 -21 45 -27 39 -28 46 34 -40 35 -47 0
-3 15 -4 -22 5 -29 -6 36 -12 30 14 -44 20 -38 -21 45 -27 39 -28 46 34 -40 35 -47 0
-3 -15 -4 -22 5 -29 -6 36 -12 30 14 -44 20 -38 -21 45 -27 39 -28 46 34 -40 35 -47 0
3 -15 -4 -22 5 -29 -6 36 -12 30 14 -44 20 -38 -21 45 -27 39 -28 46 34 -40 35 -47 0
-3 15 -4 -22 -5 29 -6 36 -12 30 14 -44 20 -38 -21 45 -27 39 -28 46 34 -40 35 -47 0
-3 -15 -4 -22 -5 29 -6 36 -12 30 14 -44 20 -38 -21 45 -27 39 -28 46 34 -40 35 -47 0
3 -15 -4 -22 -5 29 -6 36 -12 30 14 -44 20 -38 -21 45 -27 39 -28 46 34 -40 35 -47 0
-3 15 -4 22 5 -29 -6 36 -12 30 14 -44 20 -38 -21 45 -27 39 -28 46 34 -40 35 -47 0
-3 -15 -4 22 5 -29 -6 36 -12 30 14 -44 20 -38 -21 45 -27 39 -28 46 34 -40 35 -47 0
3 -15 -4 22 5 -29 -6 36 -12 30 14 -44 20 -38 -21 45 -27 39 -28 46 34 -40 35 -47 0
-3 15 -4 22 -5 29 -6 36 -12 30 14 -44 20 -38 -21 45 -27 39 -28 46 34 -40 35 -47 0
-3 -15 -4 22 -5 29 -6 36 -12 30 14 -44 20 -38 -21 45 -27 39 -28 46 34 -40 35 -47 0
3 -15 -4 22 -5 29 -6 36 -12 30 14 -44 20 -38 -21 45 -27 39 -28 46 34 -40 35 -47 0
-3 15 -4 -22 5 -29 6 -36 12 -30 14 -44 20 -38 -21 45 -27 39 -28 46 34 -40 35 -47 0
-3 -15 -4 -22 5 -29 6 -36 12 -30 14 -44 20 -38 -21 45 -27 39 -28 46 34 -40 35 -47 0
3 -15 -4 -22 5 -29 6 -36 12 -30 14 -44 20 -38 -21 45 -27 39 -28 46 34 -40 35 -47 0
-3 15 -4 -22 5 -29 6 -36 -12 30 14 -44 20 -38 -21 45 -27 39 -28 46 34 -40 35 -47 0
-3 -15 -4 -22 5 -29 6 -36 -12 30 14 -44 20 -38 -21 45 -27 39 -28 46 34 -40 35 -47 0
3 -15 -4 -22 5 -29 6 -36 -12 30 14 -44 20 -38 -21 45 -27 39 -28 46 34 -40 35 -47 0
-3 15 -4 -22 -5 29 6 -36 12 -30 14 -44 20 -38 -21 45 -27 39 -28 46 34 -40 35 -47 0
-3 -15 -4 -22 -5 29 6 -36 12 -30 14 -44 20 -38 -21 45 -27 39 -28 46 34 -40 35 -47 0
3 -15 -4 -22 -5 29 6 -36 12 -30 14 -44 20 -38 -21 45 -27 39 -28 46 34 -40 35 -47 0
-3 15 -4 -22 -5 29 6 -36 -12 30 14 -44 20 -38 -21 45 -27 39 -28 46 34 -40 35 -47 0
-3 -15 -4 -22 -5 29 6 -36 -12 30 14 -44 20 -38 -21 45 -27 39 -28 46 34 -40 35 -47 0
3 -15 -4 -22 -5 29 6 -36 -12 30 14 -44 20 -38 -21 45 -27 39 -28 46 34 -40 35 -47 0
-3 15 -4 22 5 -29 6 -36 12 -30 14 -44 20 -38 -21 45 -27 39 -28 46 34 -40 35 -47 0
-3 -15 -4 22 5 -29 6 -36 12 -30 14 -44 20 -38 -21 45 -27 39 -28 46 34 -40 35 -47 0
3 -15 -4 22 5 -29 6 -36 12 -30 14 -44 20 -38 -21 45 -27 39 -28 46 34 -40 35 -47 0
-3 15 -4 22 5 -29 6 -36 -12 30 14 -44 20 -38 -21 45 -27 39 -28 46 34 -40 35 -47 0
-3 -15 -4 22 5 -29 6 -36 -12 30 14 -44 20 -38 -21 45 -27 39 -28 46 34 -40 35 -47 0
3 -15 -4 22 5 -29 6 -36 -12 30 14 -44 20 -38 -21 45 -27 39 -28 46 34 -40 35 -47 0
-3 15 -4 22 -5 29 6 -36 12 -30 14 -44 20 -38 -21 45 -27 39 -28 46 34 -40 35 -47 0
-3 -15 -4 22 -5 29 6 -36 12 -30 14 -44 20 -38 -21 45 -27 39 -28 46 34 -40 35 -47 0
3 -15 -4 22 -5 29 6 -36 12 -30 14 -44 20 -38 -21 45 -27 39 -28 46 34 -40 35 -47 0
-3 15 -4 22 -5 29 6 -36 -12 30 14 -44 20 -38 -21 45 -27 39 -28 46 34 -40 35 -47 0
-3 -15 -4 22 -5 29 6 -36 -12 30 14 -44 20 -38 -21 45 -27 39 -28 46 34 -40 35 -47 0
3 -15 -4 22 -5 29 6 -36 -12 30 14 -44 20 -38 -21 45 -27 39 -28 46 34 -40 35 -47 0
-3 15 4 -22 5 -29 -6 36 12 -30 14 -44 20 -38 -21 45 -27 39 -28 46 34 -40 35 -47 0
-3 -15 4 -22 5 -29 -6 36 12 -30 14 -44 20 -38 -21 45 -27 39 -28 46 34 -40 35 -47 0
3 -15 4 -22 5 -29 -6 36 12 -30 14 -44 20 -38 -21 45 -27 39 -28 46 34 -40 35 -47 0
-3 15 4 -22 5 -29 6 -36 12 -30 14 -44 20 -38 -21 45 -27 39 -28 46 34 -40 35 -47 0
-3 -15 4 -22 5 -29 6 -36 12 -30 14 -44 20 -38 -21 45 -27 39 -28 46 34 -40 35 -47 0
3 -15 4 -22 5 -29 6 -36 12 -30 14 -44 20 -38 -21 45 -27 39 -28 46 34 -40 35 -47 0
-3 15 4 -22 -5 29 -6 36 12 -30 14 -44 20 -38 -21 45 -27 39 -28 46 34 -40 35 -47 0
-3 -15 4 -22 -5 29 -6 36 12 -30 14 -44 20 -38 -21 45 -27 39 -28 46 34 -40 35 -47 0
3 -15 4 -22 -5 29 -6 36 12 -30 14 -44 20 -38 -21 45 -27 39 -28 46 34 -40 35 -47 0
-3 15 4 -22 -5 29 6 -36 12 -30 14 -44 20 -38 -21 45 -27 39 -28 46 34 -40 35 -47 0
-3 -15 4 -22 -5 29 6 -36 12 -30 14 -44 20 -38 -21 45 -27 39 -28 46 34 -40 35 -47 0
3 -15 4 -22 -5 29 6 -36 12 -30 14 -44 20 -38 -21 45 -27 39 -28 46 34 -40 35 -47 0
-3 15 4 -22 5 -29 -6 36 -12 30 14 -44 20 -38 -21 45 -27 39 -28 46 34 -40 35 -47 0
-3 15 4 -22 5 -29 6 -36 -12 30 14 -44 20 -38 -21 45 -27 39 -28 46 34 -40 35 -47 0
-3 15 4 -22 -5 29 -6 36 -12 30 14 -44 20 -38 -21 45 -27 39 -28 46 34 -40 35 -47 0
-3 15 4 -22 -5 29 6 -36 -12 30 14 -44 20 -38 -21 45 -27 39 -28 46 34 -40 35 -47 0
-3 -15 4 -22 5 -29 -6 36 -12 30 14 -44 20 -38 -21 45 -27 39 -28 46 34 -40 35 -47 0
3 -15 4 -22 5 -29 -6 36 -12 30 14 -44 20 -38 -21 45 -27 39 -28 46 34 -40 35 -47 0
-3 -15 4 -22 -5 29 -6 36 -12 30 14 -44 20 -38 -21 45 -27 39 -28 46 34 -40 35 -47 0
3 -15 4 -22 -5 29 -6 36 -12 30 14 -44 20 -38 -21 45 -27 39 -28 46 34 -40 35 -47 0
-3 -15 4 -22 5 -29 6 -36 -12 30 14 -44 20 -38 -21 45 -27 39 -28 46 34 -40 35 -47 0
3 -15 4 -22 5 -29 6 -36 -12 30 14 -44 20 -38 -21 45 -27 39 -28 46 34 -40 35 -47 0
-3 -15 4 -22 -5 29 6 -36 -12 30 14 -44 20 -38 -21 45 -27 39 -28 46 34 -40 35 -47 0
3 -15 4 -22 -5 29 6 -36 -12 30 14 -44 20 -38 -21 45 -27 39 -28 46 34 -40 35 -47 0
-3 15 -4 -22 5 -29 -6 36 12 -30 -14 44 -20 38 21 -45 -27 39 -28 46 34 -40 35 -47 0
-3 -15 -4 -22 5 -29 -6 36 12 -30 -14 44 -20 38 21 -45 -27 39 -28 46 34 -40 35 -47 0
3 -15 -4 -22 5 -29 -6 36 12 -30 -14 44 -20 38 21 -45 -27 39 -28 46 34 -40 35 -47 0
-3 15 -4 22 5 -29 -6 36 12 -30 -14 44 -20 38 21 -45 -27 39 -28 46 34 -40 35 -47 0
-3 -15 -4 22 5 -29 -6 36 12 -30 -14 44 -20 38 21 -45 -27 39 -28 46 34 -40 35 -47 0
3 -15 -4 22 5 -29 -6 36 12 -30 -14 44 -20 38 21 -45 -27 39 -28 46 34 -40 35 -47 0
-3 15 -4 -22 5 -29 -6 36 12 -30 -14 44 20 -38 21 -45 -27 39 -28 46 34 -40 35 -47 0
-3 15 -4 22 5 -29 -6 36 12 -30 -14 44 20 -38 21 -45 -27 39 -28 46 34 -40 35 -47 0
-3 -15 -4 -22 5 -29 -6 36 12 -30 -14 44 20 -38 21 -45 -27 39 -28 46 34 -40 35 -47 0
3 -15 -4 -22 5 -29 -6 36 12 -30 -14 44 20 -38 21 -45 -27 39 -28 46 34 -40 35 -47 0
-3 -15 -4 22 5 -29 -6 36 12 -30 -14 44 20 -38 21 -45 -27 39 -28 46 34 -40 35 -47 0
3 -15 -4 22 5 -29 -6 36 12 -30 -14 44 20 -38 21 -45 -27 39 -28 46 34 -40 35 -47 0
-3 15 -4 -22 5 -29 -6 36 12 -30 14 -44 -20 38 21 -45 -27 39 -28 46 34 -40 35 -47 0
-3 15 -4 22 5 -29 -6 36 12 -30 14 -44 -20 38 21 -45 -27 39 -28 46 34 -40 35 -47 0
-3 15 -4 -22 5 -29 -6 36 12 -30 14 -44 20 -38 21 -45 -27 39 -28 46 34 -40 35 -47 0
-3 15 -4 22 5 -29 -6 36 12 -30 14 -44 20 -38 21 -45 -27 39 -28 46 34 -40 35 -47 0
-3 -15 -4 -22 5 -29 -6 36 12 -30 14 -44 -20 38 21 -45 -27 39 -28 46 34 -40 35 -47 0
3 -15 -4 -22 5 -29 -6 36 12 -30 14 -44 -20 38 21 -45 -27 39 -28 46 34 -40 35 -47 0
-3 -15 -4 22 5 -29 -6 36 12 -30 14 -44 -20 38 21 -45 -27 39 -28 46 34 -40 35 -47 0
3 -15 -4 22 5 -29 -6 36 12 -30 14 -44 -20 38 21 -45 -27 39 -28 46 34 -40 35 -47 0
-3 -15 -4 -22 5 -29 -6 36 12 -30 14 -44 20 -38 21 -45 -27 39 -28 46 34 -40 35 -47 0
3 -15 -4 -22 5 -29 -6 36 12 -30 14 -44 20 -38 21 -45 -27 39 -28 46 34 -40 35 -47 0
-3 -15 -4 22 5 -29 -6 36 12 -30 14 -44 20 -38 21 -45 -27 39 -28 46 34 -40 35 -47 0
3 -15 -4 22 5 -29 -6 36 12 -30 14 -44 20 -38 21 -45 -27 39 -28 46 34 -40 35 -47 0
-3 15 4 -22 5 -29 -6 36 12 -30 -14 44 -20 38 21 -45 -27 39 -28 46 34 -40 35 -47 0
-3 15 4 -22 5 -29 -6 36 12 -30 14 -44 -20 38 21 -45 -27 39 -28 46 34 -40 35 -47 0
-3 -15 4 -22 5 -29 -6 36 12 -30 -14 44 -20 38 21 -45 -27 39 -28 46 34 -40 35 -47 0
3 -15 4 -22 5 -29 -6 36 12 -30 -14 44 -20 38 21 -45 -27 39 -28 46 34 -40 35 -47 0
-3 -15 4 -22 5 -29 -6 36 12 -30 14 -44 -20 38 21 -45 -27 39 -28 46 34 -40 35 -47 0
3 -15 4 -22 5 -29 -6 36 12 -30 14 -44 -20 38 21 -45 -27 39 -28 46 34 -40 35 -47 0
-3 15 4 -22 5 -29 -6 36 12 -30 -14 44 20 -38 21 -45 -27 39 -28 46 34 -40 35 -47 0
-3 -15 4 -22 5 -29 -6 36 12 -30 -14 44 20 -38 21 -45 -27 39 -28 46 34 -40 35 -47 0
3 -15 4 -22 5 -29 -6 36 12 -30 -14 44 20 -38 21 -45 -27 39 -28 46 34 -40 35 -47 0
-3 15 4 -22 5 -29 -6 36 12 -30 14 -44 20 -38 21 -45 -27 39 -28 46 34 -40 35 -47 0
-3 -15 4 -22 5 -29 -6 36 12 -30 14 -44 20 -38 21 -45 -27 39 -28 46 34 -40 35 -47 0
3 -15 4 -22 5 -29 -6 36 12 -30 14 -44 20 -38 21 -45 -27 39 -28 46 34 -40 35 -47 0
-3 15 -4 -22 5 -29 6 -36 12 -30 -14 44 -20 38 21 -45 -27 39 -28 46 34 -40 35 -47 0
-3 15 -4 22 5 -29 6 -36 12 -30 -14 44 -20 38 21 -45 -27 39 -28 46 34 -40 35 -47 0
-3 15 -4 -22 5 -29 6 -36 12 -30 14 -44 -20 38 21 -45 -27 39 -28 46 34 -40 35 -47 0
-3 15 -4 22 5 -29 6 -36 12 -30 14 -44 -20 38 21 -45 -27 39 -28 46 34 -40 35 -47 0
-3 15 4 -22 5 -29 6 -36 12 -30 -14 44 -20 38 21 -45 -27 39 -28 46 34 -40 35 -47 0
-3 15 4 -22 5 -29 6 -36 12 -30 14 -44 -20 38 21 -45 -27 39 -28 46 34 -40 35 -47 0
-3 15 -4 -22 5 -29 6 -36 12 -30 -14 44 20 -38 21 -45 -27 39 -28 46 34 -40 35 -47 0
-3 15 -4 22 5 -29 6 -36 12 -30 -14 44 20 -38 21 -45 -27 39 -28 46 34 -40 35 -47 0
-3 15 4 -22 5 -29 6 -36 12 -30 -14 44 20 -38 21 -45 -27 39 -28 46 34 -40 35 -47 0
-3 15 -4 -22 5 -29 6 -36 12 -30 14 -44 20 -38 21 -45 -27 39 -28 46 34 -40 35 -47 0
-3 15 -4 22 5 -29 6 -36 12 -30 14 -44 20 -38 21 -45 -27 39 -28 46 34 -40 35 -47 0
-3 15 4 -22 5 -29 6 -36 12 -30 14 -44 20 -38 21 -45 -27 39 -28 46 34 -40 35 -47 0
-3 -15 -4 -22 5 -29 6 -36 12 -30 -14 44 -20 38 21 -45 -27 39 -28 46 34 -40 35 -47 0
-3 -15 -4 22 5 -29 6 -36 12 -30 -14 44 -20 38 21 -45 -27 39 -28 46 34 -40 35 -47 0
3 -15 -4 -22 5 -29 6 -36 12 -30 -14 44 -20 38 21 -45 -27 39 -28 46 34 -40 35 -47 0
3 -15 -4 22 5 -29 6 -36 12 -30 -14 44 -20 38 21 -45 -27 39 -28 46 34 -40 35 -47 0
-3 -15 4 -22 5 -29 6 -36 12 -30 -14 44 -20 38 21 -45 -27 39 -28 46 34 -40 35 -47 0
3 -15 4 -22 5 -29 6 -36 12 -30 -14 44 -20 38 21 -45 -27 39 -28 46 34 -40 35 -47 0
-3 -15 -4 -22 5 -29 6 -36 12 -30 -14 44 20 -38 21 -45 -27 39 -28 46 34 -40 35 -47 0
-3 -15 -4 22 5 -29 6 -36 12 -30 -14 44 20 -38 21 -45 -27 39 -28 46 34 -40 35 -47 0
3 -15 -4 -22 5 -29 6 -36 12 -30 -14 44 20 -38 21 -45 -27 39 -28 46 34 -40 35 -47 0
3 -15 -4 22 5 -29 6 -36 12 -30 -14 44 20 -38 21 -45 -27 39 -28 46 34 -40 35 -47 0
-3 -15 4 -22 5 -29 6 -36 12 -30 -14 44 20 -38 21 -45 -27 39 -28 46 34 -40 35 -47 0
3 -15 4 -22 5 -29 6 -36 12 -30 -14 44 20 -38 21 -45 -27 39 -28 46 34 -40 35 -47 0
-3 -15 -4 -22 5 -29 6 -36 12 -30 14 -44 -20 38 21 -45 -27 39 -28 46 34 -40 35 -47 0
-3 -15 -4 22 5 -29 6 -36 12 -30 14 -44 -20 38 21 -45 -27 39 -28 46 34 -40 35 -47 0
3 -15 -4 -22 5 -29 6 -36 12 -30 14 -44 -20 38 21 -45 -27 39 -28 46 34 -40 35 -47 0
3 -15 -4 22 5 -29 6 -36 12 -30 14 -44 -20 38 21 -45 -27 39 -28 46 34 -40 35 -47 0
-3 -15 4 -22 5 -29 6 -36 12 -30 14 -44 -20 38 21 -45 -27 39 -28 46 34 -40 35 -47 0
3 -15 4 -22 5 -29 6 -36 12 -30 14 -44 -20 38 21 -45 -27 39 -28 46 34 -40 35 -47 0
-3 -15 -4 -22 5 -29 6 -36 12 -30 14 -44 20 -38 21 -45 -27 39 -28 46 34 -40 35 -47 0
3 -15 -4 -22 5 -29 6 -36 12 -30 14 -44 20 -38 21 -45 -27 39 -28 46 34 -40 35 -47 0
-3 -15 -4 22 5 -29 6 -36 12 -30 14 -44 20 -38 21 -45 -27 39 -28 46 34 -40 35 -47 0
3 -15 -4 22 5 -29 6 -36 12 -30 14 -44 20 -38 21 -45 -27 39 -28 46 34 -40 35 -47 0
-3 -15 4 -22 5 -29 6 -36 12 -30 14 -44 20 -38 21 -45 -27 39 -28 46 34 -40 35 -47 0
3 -15 4 -22 5 -29 6 -36 12 -30 14 -44 20 -38 21 -45 -27 39 -28 46 34 -40 35 -47 0
-3 15 -4 -22 5 -29 -6 36 -12 30 -14 44 -20 38 21 -45 -27 39 -28 46 34 -40 35 -47 0
-3 15 -4 22 5 -29 -6 36 -12 30 -14 44 -20 38 21 -45 -27 39 -28 46 34 -40 35 -47 0
-3 15 4 -22 5 -29 -6 36 -12 30 -14 44 -20 38 21 -45 -27 39 -28 46 34 -40 35 -47 0
-3 -15 -4 -22 5 -29 -6 36 -12 30 -14 44 -20 38 21 -45 -27 39 -28 46 34 -40 35 -47 0
3 -15 -4 -22 5 -29 -6 36 -12 30 -14 44 -20 38 21 -45 -27 39 -28 46 34 -40 35 -47 0
-3 -15 -4 22 5 -29 -6 36 -12 30 -14 44 -20 38 21 -45 -27 39 -28 46 34 -40 35 -47 0
3 -15 -4 22 5 -29 -6 36 -12 30 -14 44 -20 38 21 -45 -27 39 -28 46 34 -40 35 -47 0
-3 -15 4 -22 5 -29 -6 36 -12 30 -14 44 -20 38 21 -45 -27 39 -28 46 34 -40 35 -47 0
3 -15 4 -22 5 -29 -6 36 -12 30 -14 44 -20 38 21 -45 -27 39 -28 46 34 -40 35 -47 0
-3 15 -4 -22 5 -29 -6 36 -12 30 14 -44 -20 38 21 -45 -27 39 -28 46 34 -40 35 -47 0
-3 15 -4 22 5 -29 -6 36 -12 30 14 -44 -20 38 21 -45 -27 39 -28 46 34 -40 35 -47 0
-3 15 4 -22 5 -29 -6 36 -12 30 14 -44 -20 38 21 -45 -27 39 -28 46 34 -40 35 -47 0
-3 -15 -4 -22 5 -29 -6 36 -12 30 14 -44 -20 38 21 -45 -27 39 -28 46 34 -40 35 -47 0
3 -15 -4 -22 5 -29 -6 36 -12 30 14 -44 -20 38 21 -45 -27 39 -28 46 34 -40 35 -47 0
-3 -15 -4 22 5 -29 -6 36 -12 30 14 -44 -20 38 21 -45 -27 39 -28 46 34 -40 35 -47 0
3 -15 -4 22 5 -29 -6 36 -12 30 14 -44 -20 38 21 -45 -27 39 -28 46 34 -40 35 -47 0
-3 -15 4 -22 5 -29 -6 36 -12 30 14 -44 -20 38 21 -45 -27 39 -28 46 34 -40 35 -47 0
3 -15 4 -22 5 -29 -6 36 -12 30 14 -44 -20 38 21 -45 -27 39 -28 46 34 -40 35 -47 0
-3 15 -4 -22 5 -29 6 -36 -12 30 -14 44 -20 38 21 -45 -27 39 -28 46 34 -40 35 -47 0
-3 15 -4 22 5 -29 6 -36 -12 30 -14 44 -20 38 21 -45 -27 39 -28 46 34 -40 35 -47 0
-3 15 4 -22 5 -29 6 -36 -12 30 -14 44 -20 38 21 -45 -27 39 -28 46 34 -40 35 -47 0
-3 15 -4 -22 5 -29 6 -36 -12 30 14 -44 -20 38 21 -45 -27 39 -28 46 34 -40 35 -47 0
-3 15 -4 22 5 -29 6 -36 -12 30 14 -44 -20 38 21 -45 -27 39 -28 46 34 -40 35 -47 0
-3 15 4 -22 5 -29 6 -36 -12 30 14 -44 -20 38 21 -45 -27 39 -28 46 34 -40 35 -47 0
-3 -15 -4 -22 5 -29 6 -36 -12 30 -14 44 -20 38 21 -45 -27 39 -28 46 34 -40 35 -47 0
-3 -15 -4 22 5 -29 6 -36 -12 30 -14 44 -20 38 21 -45 -27 39 -28 46 34 -40 35 -47 0
3 -15 -4 -22 5 -29 6 -36 -12 30 -14 44 -20 38 21 -45 -27 39 -28 46 34 -40 35 -47 0
3 -15 -4 22 5 -29 6 -36 -12 30 -14 44 -20 38 21 -45 -27 39 -28 46 34 -40 35 -47 0
-3 -15 4 -22 5 -29 6 -36 -12 30 -14 44 -20 38 21 -45 -27 39 -28 46 34 -40 35 -47 0
3 -15 4 -22 5 -29 6 -36 -12 30 -14 44 -20 38 21 -45 -27 39 -28 46 34 -40 35 -47 0
-3 -15 -4 -22 5 -29 6 -36 -12 30 14 -44 -20 38 21 -45 -27 39 -28 46 34 -40 35 -47 0
3 -15 -4 -22 5 -29 6 -36 -12 30 14 -44 -20 38 21 -45 -27 39 -28 46 34 -40 35 -47 0
-3 -15 -4 22 5 -29 6 -36 -12 30 14 -44 -20 38 21 -45 -27 39 -28 46 34 -40 35 -47 0
3 -15 -4 22 5 -29 6 -36 -12 30 14 -44 -20 38 21 -45 -27 39 -28 46 34 -40 35 -47 0
-3 -15 4 -22 5 -29 6 -36 -12 30 14 -44 -20 38 21 -45 -27 39 -28 46 34 -40 35 -47 0
3 -15 4 -22 5 -29 6 -36 -12 30 14 -44 -20 38 21 -45 -27 39 -28 46 34 -40 35 -47 0
-3 15 -4 -22 5 -29 -6 36 -12 30 -14 44 20 -38 21 -45 -27 39 -28 46 34 -40 35 -47 0
-3 15 -4 22 5 -29 -6 36 -12 30 -14 44 20 -38 21 -45 -27 39 -28 46 34 -40 35 -47 0
-3 15 4 -22 5 -29 -6 36 -12 30 -14 44 20 -38 21 -45 -27 39 -28 46 34 -40 35 -47 0
-3 -15 -4 -22 5 -29 -6 36 -12 30 -14 44 20 -38 21 -45 -27 39 -28 46 34 -40 35 -47 0
3 -15 -4 -22 5 -29 -6 36 -12 30 -14 44 20 -38 21 -45 -27 39 -28 46 34 -40 35 -47 0
-3 -15 -4 22 5 -29 -6 36 -12 30 -14 44 20 -38 21 -45 -27 39 -28 46 34 -40 35 -47 0
3 -15 -4 22 5 -29 -6 36 -12 30 -14 44 20 -38 21 -45 -27 39 -28 46 34 -40 35 -47 0
-3 -15 4 -22 5 -29 -6 36 -12 30 -14 44 20 -38 21 -45 -27 39 -28 46 34 -40 35 -47 0
3 -15 4 -22 5 -29 -6 36 -12 30 -14 44 20 -38 21 -45 -27 39 -28 46 34 -40 35 -47 0
-3 15 -4 -22 5 -29 6 -36 -12 30 -14 44 20 -38 21 -45 -27 39 -28 46 34 -40 35 -47 0
-3 15 -4 22 5 -29 6 -36 -12 30 -14 44 20 -38 21 -45 -27 39 -28 46 34 -40 35 -47 0
-3 15 4 -22 5 -29 6 -36 -12 30 -14 44 20 -38 21 -45 -27 39 -28 46 34 -40 35 -47 0
-3 -15 -4 -22 5 -29 6 -36 -12 30 -14 44 20 -38 21 -45 -27 39 -28 46 34 -40 35 -47 0
3 -15 -4 -22 5 -29 6 -36 -12 30 -14 44 20 -38 21 -45 -27 39 -28 46 34 -40 35 -47 0
-3 -15 -4 22 5 -29 6 -36 -12 30 -14 44 20 -38 21 -45 -27 39 -28 46 34 -40 35 -47 0
3 -15 -4 22 5 -29 6 -36 -12 30 -14 44 20 -38 21 -45 -27 39 -28 46 34 -40 35 -47 0
-3 -15 4 -22 5 -29 6 -36 -12 30 -14 44 20 -38 21 -45 -27 39 -28 46 34 -40 35 -47 0
3 -15 4 -22 5 -29 6 -36 -12 30 -14 44 20 -38 21 -45 -27 39 -28 46 34 -40 35 -47 0
-3 15 -4 -22 5 -29 -6 36 -12 30 14 -44 20 -38 21 -45 -27 39 -28 46 34 -40 35 -47 0
-3 15 -4 22 5 -29 -6 36 -12 30 14 -44 20 -38 21 -45 -27 39 -28 46 34 -40 35 -47 0
-3 15 4 -22 5 -29 -6 36 -12 30 14 -44 20 -38 21 -45 -27 39 -28 46 34 -40 35 -47 0
-3 -15 -4 -22 5 -29 -6 36 -12 30 14 -44 20 -38 21 -45 -27 39 -28 46 34 -40 35 -47 0
3 -15 -4 -22 5 -29 -6 36 -12 30 14 -44 20 -38 21 -45 -27 39 -28 46 34 -40 35 -47 0
-3 -15 -4 22 5 -29 -6 36 -12 30 14 -44 20 -38 21 -45 -27 39 -28 46 34 -40 35 -47 0
3 -15 -4 22 5 -29 -6 36 -12 30 14 -44 20 -38 21 -45 -27 39 -28 46 34 -40 35 -47 0
-3 -15 4 -22 5 -29 -6 36 -12 30 14 -44 20 -38 21 -45 -27 39 -28 46 34 -40 35 -47 0
3 -15 4 -22 5 -29 -6 36 -12 30 14 -44 20 -38 21 -45 -27 39 -28 46 34 -40 35 -47 0
-3 15 -4 -22 5 -29 6 -36 -12 30 14 -44 20 -38 21 -45 -27 39 -28 46 34 -40 35 -47 0
-3 15 -4 22 5 -29 6 -36 -12 30 14 -44 20 -38 21 -45 -27 39 -28 46 34 -40 35 -47 0
-3 15 4 -22 5 -29 6 -36 -12 30 14 -44 20 -38 21 -45 -27 39 -28 46 34 -40 35 -47 0
-3 -15 -4 -22 5 -29 6 -36 -12 30 14 -44 20 -38 21 -45 -27 39 -28 46 34 -40 35 -47 0
3 -15 -4 -22 5 -29 6 -36 -12 30 14 -44 20 -38 21 -45 -27 39 -28 46 34 -40 35 -47 0
-3 -15 -4 22 5 -29 6 -36 -12 30 14 -44 20 -38 21 -45 -27 39 -28 46 34 -40 35 -47 0
3 -15 4 -22 5 -29 6 -36 -12 30 14 -44 20 -38 21 -45 -27 39 -28 46 34 -40 35 -47 0
3 -15 -4 22 5 -29 6 -36 -12 30 14 -44 20 -38 21 -45 -27 39 -28 46 34 -40 35 -47 0
-3 -15 4 -22 5 -29 6 -36 -12 30 14 -44 20 -38 21 -45 -27 39 -28 46 34 -40 35 -47 0
-3 15 -4 22 -5 29 -6 36 -12 30 14 -44 20 -38 21 -45 -27 39 -28 46 34 -40 35 -47 0
-3 15 4 -22 -5 29 -6 36 -12 30 14 -44 20 -38 21 -45 -27 39 -28 46 34 -40 35 -47 0
-3 15 4 -22 -5 29 6 -36 -12 30 14 -44 20 -38 21 -45 -27 39 -28 46 34 -40 35 -47 0
-3 -15 -4 -22 -5 29 6 -36 12 -30 14 -44 20 -38 21 -45 -27 39 -28 46 34 -40 35 -47 0
-3 15 -4 -22 -5 29 6 -36 12 -30 14 -44 20 -38 21 -45 -27 39 -28 46 34 -40 35 -47 0
-3 -15 -4 22 -5 29 6 -36 12 -30 14 -44 20 -38 21 -45 -27 39 -28 46 34 -40 35 -47 0
3 -15 -4 -22 -5 29 6 -36 12 -30 14 -44 20 -38 21 -45 -27 39 -28 46 34 -40 35 -47 0
-3 -15 4 -22 -5 29 6 -36 12 -30 14 -44 20 -38 21 -45 -27 39 -28 46 34 -40 35 -47 0
-3 15 4 -22 -5 29 6 -36 12 -30 14 -44 20 -38 21 -45 -27 39 -28 46 34 -40 35 -47 0
-3 15 -4 22 -5 29 6 -36 12 -30 14 -44 20 -38 21 -45 -27 39 -28 46 34 -40 35 -47 0
3 -15 4 -22 -5 29 6 -36 12 -30 14 -44 20 -38 21 -45 -27 39 -28 46 34 -40 35 -47 0
3 -15 -4 22 -5 29 6 -36 12 -30 14 -44 20 -38 21 -45 -27 39 -28 46 34 -40 35 -47 0
-3 -15 -4 -22 -5 29 -6 36 12 -30 14 -44 20 -38 21 -45 -27 39 -28 46 34 -40 35 -47 0
-3 -15 4 -22 -5 29 -6 36 12 -30 14 -44 20 -38 21 -45 -27 39 -28 46 34 -40 35 -47 0
-3 15 -4 -22 -5 29 -6 36 12 -30 14 -44 20 -38 21 -45 -27 39 -28 46 34 -40 35 -47 0
3 -15 -4 -22 -5 29 -6 36 12 -30 14 -44 20 -38 21 -45 -27 39 -28 46 34 -40 35 -47 0
-3 15 4 -22 -5 29 -6 36 12 -30 14 -44 20 -38 21 -45 -27 39 -28 46 34 -40 35 -47 0
3 -15 4 -22 -5 29 -6 36 12 -30 14 -44 20 -38 21 -45 -27 39 -28 46 34 -40 35 -47 0
-3 -15 -4 22 -5 29 -6 36 12 -30 14 -44 20 -38 21 -45 -27 39 -28 46 34 -40 35 -47 0
-3 15 -4 22 -5 29 -6 36 12 -30 14 -44 20 -38 21 -45 -27 39 -28 46 34 -40 35 -47 0
3 -15 -4 22 -5 29 -6 36 12 -30 14 -44 20 -38 21 -45 -27 39 -28 46 34 -40 35 -47 0
-3 -15 -4 -22 -5 29 6 -36 -12 30 14 -44 20 -38 21 -45 -27 39 -28 46 34 -40 35 -47 0
3 -15 -4 -22 -5 29 6 -36 -12 30 14 -44 20 -38 21 -45 -27 39 -28 46 34 -40 35 -47 0
-3 15 -4 -22 -5 29 6 -36 -12 30 14 -44 20 -38 21 -45 -27 39 -28 46 34 -40 35 -47 0
-3 -15 4 -22 -5 29 6 -36 -12 30 14 -44 20 -38 21 -45 -27 39 -28 46 34 -40 35 -47 0
3 -15 4 -22 -5 29 6 -36 -12 30 14 -44 20 -38 21 -45 -27 39 -28 46 34 -40 35 -47 0
-3 -15 -4 22 -5 29 6 -36 -12 30 14 -44 20 -38 21 -45 -27 39 -28 46 34 -40 35 -47 0
3 -15 -4 22 -5 29 6 -36 -12 30 14 -44 20 -38 21 -45 -27 39 -28 46 34 -40 35 -47 0
-3 15 -4 22 -5 29 6 -36 -12 30 14 -44 20 -38 21 -45 -27 39 -28 46 34 -40 35 -47 0
-3 -15 -4 -22 -5 29 -6 36 -12 30 14 -44 20 -38 21 -45 -27 39 -28 46 34 -40 35 -47 0
-3 15 -4 -22 -5 29 -6 36 -12 30 14 -44 20 -38 21 -45 -27 39 -28 46 34 -40 35 -47 0
3 -15 -4 -22 -5 29 -6 36 -12 30 14 -44 20 -38 21 -45 -27 39 -28 46 34 -40 35 -47 0
-3 -15 4 -22 -5 29 -6 36 -12 30 14 -44 20 -38 21 -45 -27 39 -28 46 34 -40 35 -47 0
3 -15 4 -22 -5 29 -6 36 -12 30 14 -44 20 -38 21 -45 -27 39 -28 46 34 -40 35 -47 0
-3 -15 -4 22 -5 29 -6 36 -12 30 14 -44 20 -38 21 -45 -27 39 -28 46 34 -40 35 -47 0
3 -15 -4 22 -5 29 -6 36 -12 30 14 -44 20 -38 21 -45 -27 39 -28 46 34 -40 35 -47 0
-3 -15 -4 -22 -5 29 6 -36 12 -30 -14 44 20 -38 21 -45 -27 39 -28 46 34 -40 35 -47 0
-3 -15 4 -22 -5 29 6 -36 12 -30 -14 44 20 -38 21 -45 -27 39 -28 46 34 -40 35 -47 0
3 -15 -4 -22 -5 29 6 -36 12 -30 -14 44 20 -38 21 -45 -27 39 -28 46 34 -40 35 -47 0
-3 15 -4 -22 -5 29 6 -36 12 -30 -14 44 20 -38 21 -45 -27 39 -28 46 34 -40 35 -47 0
-3 -15 -4 22 -5 29 6 -36 12 -30 -14 44 20 -38 21 -45 -27 39 -28 46 34 -40 35 -47 0
3 -15 4 -22 -5 29 6 -36 12 -30 -14 44 20 -38 21 -45 -27 39 -28 46 34 -40 35 -47 0
3 -15 -4 22 -5 29 6 -36 12 -30 -14 44 20 -38 21 -45 -27 39 -28 46 34 -40 35 -47 0
-3 15 4 -22 -5 29 6 -36 12 -30 -14 44 20 -38 21 -45 -27 39 -28 46 34 -40 35 -47 0
-3 15 -4 22 -5 29 6 -36 12 -30 -14 44 20 -38 21 -45 -27 39 -28 46 34 -40 35 -47 0
-3 -15 -4 -22 -5 29 -6 36 12 -30 -14 44 20 -38 21 -45 -27 39 -28 46 34 -40 35 -47 0
-3 -15 4 -22 -5 29 -6 36 12 -30 -14 44 20 -38 21 -45 -27 39 -28 46 34 -40 35 -47 0
-3 -15 -4 22 -5 29 -6 36 12 -30 -14 44 20 -38 21 -45 -27 39 -28 46 34 -40 35 -47 0
3 -15 -4 -22 -5 29 -6 36 12 -30 -14 44 20 -38 21 -45 -27 39 -28 46 34 -40 35 -47 0
3 -15 4 -22 -5 29 -6 36 12 -30 -14 44 20 -38 21 -45 -27 39 -28 46 34 -40 35 -47 0
3 -15 -4 22 -5 29 -6 36 12 -30 -14 44 20 -38 21 -45 -27 39 -28 46 34 -40 35 -47 0
-3 15 -4 -22 -5 29 -6 36 12 -30 -14 44 20 -38 21 -45 -27 39 -28 46 34 -40 35 -47 0
-3 15 4 -22 -5 29 -6 36 12 -30 -14 44 20 -38 21 -45 -27 39 -28 46 34 -40 35 -47 0
-3 15 -4 22 -5 29 -6 36 12 -30 -14 44 20 -38 21 -45 -27 39 -28 46 34 -40 35 -47 0
-3 -15 -4 -22 -5 29 6 -36 -12 30 -14 44 20 -38 21 -45 -27 39 -28 46 34 -40 35 -47 0
-3 -15 4 -22 -5 29 6 -36 -12 30 -14 44 20 -38 21 -45 -27 39 -28 46 34 -40 35 -47 0
-3 15 -4 -22 -5 29 6 -36 -12 30 -14 44 20 -38 21 -45 -27 39 -28 46 34 -40 35 -47 0
3 -15 -4 -22 -5 29 6 -36 -12 30 -14 44 20 -38 21 -45 -27 39 -28 46 34 -40 35 -47 0
-3 15 4 -22 -5 29 6 -36 -12 30 -14 44 20 -38 21 -45 -27 39 -28 46 34 -40 35 -47 0
3 -15 4 -22 -5 29 6 -36 -12 30 -14 44 20 -38 21 -45 -27 39 -28 46 34 -40 35 -47 0
-3 -15 -4 22 -5 29 6 -36 -12 30 -14 44 20 -38 21 -45 -27 39 -28 46 34 -40 35 -47 0
-3 15 -4 22 -5 29 6 -36 -12 30 -14 44 20 -38 21 -45 -27 39 -28 46 34 -40 35 -47 0
3 -15 -4 22 -5 29 6 -36 -12 30 -14 44 20 -38 21 -45 -27 39 -28 46 34 -40 35 -47 0
-3 -15 -4 -22 -5 29 -6 36 -12 30 -14 44 20 -38 21 -45 -27 39 -28 46 34 -40 35 -47 0
-3 15 -4 -22 -5 29 -6 36 -12 30 -14 44 20 -38 21 -45 -27 39 -28 46 34 -40 35 -47 0
3 -15 -4 -22 -5 29 -6 36 -12 30 -14 44 20 -38 21 -45 -27 39 -28 46 34 -40 35 -47 0
-3 -15 4 -22 -5 29 -6 36 -12 30 -14 44 20 -38 21 -45 -27 39 -28 46 34 -40 35 -47 0
-3 -15 -4 22 -5 29 -6 36 -12 30 -14 44 20 -38 21 -45 -27 39 -28 46 34 -40 35 -47 0
3 -15 4 -22 -5 29 -6 36 -12 30 -14 44 20 -38 21 -45 -27 39 -28 46 34 -40 35 -47 0
3 -15 -4 22 -5 29 -6 36 -12 30 -14 44 20 -38 21 -45 -27 39 -28 46 34 -40 35 -47 0
-3 15 4 -22 -5 29 -6 36 -12 30 -14 44 20 -38 21 -45 -27 39 -28 46 34 -40 35 -47 0
-3 15 -4 22 -5 29 -6 36 -12 30 -14 44 20 -38 21 -45 -27 39 -28 46 34 -40 35 -47 0
-3 -15 -4 -22 -5 29 6 -36 12 -30 14 -44 -20 38 21 -45 -27 39 -28 46 34 -40 35 -47 0
-3 -15 -4 22 -5 29 6 -36 12 -30 14 -44 -20 38 21 -45 -27 39 -28 46 34 -40 35 -47 0
-3 -15 4 -22 -5 29 6 -36 12 -30 14 -44 -20 38 21 -45 -27 39 -28 46 34 -40 35 -47 0
3 -15 -4 -22 -5 29 6 -36 12 -30 14 -44 -20 38 21 -45 -27 39 -28 46 34 -40 35 -47 0
3 -15 4 -22 -5 29 6 -36 12 -30 14 -44 -20 38 21 -45 -27 39 -28 46 34 -40 35 -47 0
3 -15 -4 22 -5 29 6 -36 12 -30 14 -44 -20 38 21 -45 -27 39 -28 46 34 -40 35 -47 0
-3 15 -4 -22 -5 29 6 -36 12 -30 14 -44 -20 38 21 -45 -27 39 -28 46 34 -40 35 -47 0
-3 15 4 -22 -5 29 6 -36 12 -30 14 -44 -20 38 21 -45 -27 39 -28 46 34 -40 35 -47 0
-3 15 -4 22 -5 29 6 -36 12 -30 14 -44 -20 38 21 -45 -27 39 -28 46 34 -40 35 -47 0
-3 -15 -4 -22 -5 29 -6 36 12 -30 14 -44 -20 38 21 -45 -27 39 -28 46 34 -40 35 -47 0
3 -15 -4 -22 -5 29 -6 36 12 -30 14 -44 -20 38 21 -45 -27 39 -28 46 34 -40 35 -47 0
-3 15 -4 -22 -5 29 -6 36 12 -30 14 -44 -20 38 21 -45 -27 39 -28 46 34 -40 35 -47 0
-3 -15 4 -22 -5 29 -6 36 12 -30 14 -44 -20 38 21 -45 -27 39 -28 46 34 -40 35 -47 0
3 -15 4 -22 -5 29 -6 36 12 -30 14 -44 -20 38 21 -45 -27 39 -28 46 34 -40 35 -47 0
-3 15 4 -22 -5 29 -6 36 12 -30 14 -44 -20 38 21 -45 -27 39 -28 46 34 -40 35 -47 0
-3 -15 -4 22 -5 29 -6 36 12 -30 14 -44 -20 38 21 -45 -27 39 -28 46 34 -40 35 -47 0
3 -15 -4 22 -5 29 -6 36 12 -30 14 -44 -20 38 21 -45 -27 39 -28 46 34 -40 35 -47 0
-3 15 -4 22 -5 29 -6 36 12 -30 14 -44 -20 38 21 -45 -27 39 -28 46 34 -40 35 -47 0
-3 -15 -4 -22 -5 29 6 -36 -12 30 14 -44 -20 38 21 -45 -27 39 -28 46 34 -40 35 -47 0
-3 15 -4 -22 -5 29 6 -36 -12 30 14 -44 -20 38 21 -45 -27 39 -28 46 34 -40 35 -47 0
3 -15 -4 -22 -5 29 6 -36 -12 30 14 -44 -20 38 21 -45 -27 39 -28 46 34 -40 35 -47 0
-3 -15 4 -22 -5 29 6 -36 -12 30 14 -44 -20 38 21 -45 -27 39 -28 46 34 -40 35 -47 0
3 -15 4 -22 -5 29 6 -36 -12 30 14 -44 -20 38 21 -45 -27 39 -28 46 34 -40 35 -47 0
-3 15 4 -22 -5 29 6 -36 -12 30 14 -44 -20 38 21 -45 -27 39 -28 46 34 -40 35 -47 0
-3 -15 -4 22 -5 29 6 -36 -12 30 14 -44 -20 38 21 -45 -27 39 -28 46 34 -40 35 -47 0
3 -15 -4 22 -5 29 6 -36 -12 30 14 -44 -20 38 21 -45 -27 39 -28 46 34 -40 35 -47 0
-3 15 -4 22 -5 29 6 -36 -12 30 14 -44 -20 38 21 -45 -27 39 -28 46 34 -40 35 -47 0
-3 -15 -4 -22 -5 29 -6 36 -12 30 14 -44 -20 38 21 -45 -27 39 -28 46 34 -40 35 -47 0
3 -15 -4 -22 -5 29 -6 36 -12 30 14 -44 -20 38 21 -45 -27 39 -28 46 34 -40 35 -47 0
-3 15 -4 -22 -5 29 -6 36 -12 30 14 -44 -20 38 21 -45 -27 39 -28 46 34 -40 35 -47 0
-3 -15 4 -22 -5 29 -6 36 -12 30 14 -44 -20 38 21 -45 -27 39 -28 46 34 -40 35 -47 0
3 -15 4 -22 -5 29 -6 36 -12 30 14 -44 -20 38 21 -45 -27 39 -28 46 34 -40 35 -47 0
-3 15 4 -22 -5 29 -6 36 -12 30 14 -44 -20 38 21 -45 -27 39 -28 46 34 -40 35 -47 0
-3 -15 -4 22 -5 29 -6 36 -12 30 14 -44 -20 38 21 -45 -27 39 -28 46 34 -40 35 -47 0
3 -15 -4 22 -5 29 -6 36 -12 30 14 -44 -20 38 21 -45 -27 39 -28 46 34 -40 35 -47 0
-3 15 -4 22 -5 29 -6 36 -12 30 14 -44 -20 38 21 -45 -27 39 -28 46 34 -40 35 -47 0
-3 -15 -4 -22 -5 29 6 -36 12 -30 -14 44 -20 38 21 -45 -27 39 -28 46 34 -40 35 -47 0
3 -15 -4 -22 -5 29 6 -36 12 -30 -14 44 -20 38 21 -45 -27 39 -28 46 34 -40 35 -47 0
-3 15 -4 -22 -5 29 6 -36 12 -30 -14 44 -20 38 21 -45 -27 39 -28 46 34 -40 35 -47 0
-3 -15 4 -22 -5 29 6 -36 12 -30 -14 44 -20 38 21 -45 -27 39 -28 46 34 -40 35 -47 0
-3 -15 -4 22 -5 29 6 -36 12 -30 -14 44 -20 38 21 -45 -27 39 -28 46 34 -40 35 -47 0
3 -15 4 -22 -5 29 6 -36 12 -30 -14 44 -20 38 21 -45 -27 39 -28 46 34 -40 35 -47 0
3 -15 -4 22 -5 29 6 -36 12 -30 -14 44 -20 38 21 -45 -27 39 -28 46 34 -40 35 -47 0
-3 15 -4 22 -5 29 6 -36 12 -30 -14 44 -20 38 21 -45 -27 39 -28 46 34 -40 35 -47 0
-3 15 4 -22 -5 29 6 -36 12 -30 -14 44 -20 38 21 -45 -27 39 -28 46 34 -40 35 -47 0
-3 -15 -4 -22 -5 29 -6 36 12 -30 -14 44 -20 38 21 -45 -27 39 -28 46 34 -40 35 -47 0
-3 15 -4 -22 -5 29 -6 36 12 -30 -14 44 -20 38 21 -45 -27 39 -28 46 34 -40 35 -47 0
3 -15 -4 -22 -5 29 -6 36 12 -30 -14 44 -20 38 21 -45 -27 39 -28 46 34 -40 35 -47 0
-3 -15 4 -22 -5 29 -6 36 12 -30 -14 44 -20 38 21 -45 -27 39 -28 46 34 -40 35 -47 0
-3 15 4 -22 -5 29 -6 36 12 -30 -14 44 -20 38 21 -45 -27 39 -28 46 34 -40 35 -47 0
3 -15 4 -22 -5 29 -6 36 12 -30 -14 44 -20 38 21 -45 -27 39 -28 46 34 -40 35 -47 0
-3 -15 -4 22 -5 29 -6 36 12 -30 -14 44 -20 38 21 -45 -27 39 -28 46 34 -40 35 -47 0
-3 15 -4 22 -5 29 -6 36 12 -30 -14 44 -20 38 21 -45 -27 39 -28 46 34 -40 35 -47 0
3 -15 -4 22 -5 29 -6 36 12 -30 -14 44 -20 38 21 -45 -27 39 -28 46 34 -40 35 -47 0
-3 -15 -4 -22 -5 29 6 -36 -12 30 -14 44 -20 38 21 -45 -27 39 -28 46 34 -40 35 -47 0
-3 15 -4 -22 -5 29 6 -36 -12 30 -14 44 -20 38 21 -45 -27 39 -28 46 34 -40 35 -47 0
3 -15 -4 -22 -5 29 6 -36 -12 30 -14 44 -20 38 21 -45 -27 39 -28 46 34 -40 35 -47 0
-3 -15 4 -22 -5 29 6 -36 -12 30 -14 44 -20 38 21 -45 -27 39 -28 46 34 -40 35 -47 0
3 -15 4 -22 -5 29 6 -36 -12 30 -14 44 -20 38 21 -45 -27 39 -28 46 34 -40 35 -47 0
-3 15 4 -22 -5 29 6 -36 -12 30 -14 44 -20 38 21 -45 -27 39 -28 46 34 -40 35 -47 0
-3 -15 -4 22 -5 29 6 -36 -12 30 -14 44 -20 38 21 -45 -27 39 -28 46 34 -40 35 -47 0
3 -15 -4 22 -5 29 6 -36 -12 30 -14 44 -20 38 21 -45 -27 39 -28 46 34 -40 35 -47 0
-3 15 -4 22 -5 29 6 -36 -12 30 -14 44 -20 38 21 -45 -27 39 -28 46 34 -40 35 -47 0
-3 -15 -4 -22 -5 29 -6 36 -12 30 -14 44 -20 38 21 -45 -27 39 -28 46 34 -40 35 -47 0
3 -15 -4 -22 -5 29 -6 36 -12 30 -14 44 -20 38 21 -45 -27 39 -28 46 34 -40 35 -47 0
-3 15 -4 -22 -5 29 -6 36 -12 30 -14 44 -20 38 21 -45 -27 39 -28 46 34 -40 35 -47 0
-3 -15 4 -22 -5 29 -6 36 -12 30 -14 44 -20 38 21 -45 -27 39 -28 46 34 -40 35 -47 0
3 -15 4 -22 -5 29 -6 36 -12 30 -14 44 -20 38 21 -45 -27 39 -28 46 34 -40 35 -47 0
-3 15 4 -22 -5 29 -6 36 -12 30 -14 44 -20 38 21 -45 -27 39 -28 46 34 -40 35 -47 0
-3 -15 -4 22 -5 29 -6 36 -12 30 -14 44 -20 38 21 -45 -27 39 -28 46 34 -40 35 -47 0
3 -15 -4 22 -5 29 -6 36 -12 30 -14 44 -20 38 21 -45 -27 39 -28 46 34 -40 35 -47 0
-3 15 -4 22 -5 29 -6 36 -12 30 -14 44 -20 38 21 -45 -27 39 -28 46 34 -40 35 -47 0
-3 -15 -4 -22 5 -29 6 -36 12 -30 14 -44 20 -38 21 -45 27 -39 -28 46 34 -40 35 -47 0
3 -15 -4 -22 5 -29 6 -36 12 -30 14 -44 20 -38 21 -45 27 -39 -28 46 34 -40 35 -47 0
-3 15 -4 -22 5 -29 6 -36 12 -30 14 -44 20 -38 21 -45 27 -39 -28 46 34 -40 35 -47 0
-3 -15 4 -22 5 -29 6 -36 12 -30 14 -44 20 -38 21 -45 27 -39 -28 46 34 -40 35 -47 0
-3 -15 -4 22 5 -29 6 -36 12 -30 14 -44 20 -38 21 -45 27 -39 -28 46 34 -40 35 -47 0
3 -15 4 -22 5 -29 6 -36 12 -30 14 -44 20 -38 21 -45 27 -39 -28 46 34 -40 35 -47 0
3 -15 -4 22 5 -29 6 -36 12 -30 14 -44 20 -38 21 -45 27 -39 -28 46 34 -40 35 -47 0
-3 15 4 -22 5 -29 6 -36 12 -30 14 -44 20 -38 21 -45 27 -39 -28 46 34 -40 35 -47 0
-3 15 -4 22 5 -29 6 -36 12 -30 14 -44 20 -38 21 -45 27 -39 -28 46 34 -40 35 -47 0
-3 -15 -4 -22 -5 29 6 -36 12 -30 14 -44 20 -38 21 -45 27 -39 -28 46 34 -40 35 -47 0
-3 -15 4 -22 -5 29 6 -36 12 -30 14 -44 20 -38 21 -45 27 -39 -28 46 34 -40 35 -47 0
-3 -15 -4 22 -5 29 6 -36 12 -30 14 -44 20 -38 21 -45 27 -39 -28 46 34 -40 35 -47 0
3 -15 -4 -22 -5 29 6 -36 12 -30 14 -44 20 -38 21 -45 27 -39 -28 46 34 -40 35 -47 0
-3 15 -4 -22 -5 29 6 -36 12 -30 14 -44 20 -38 21 -45 27 -39 -28 46 34 -40 35 -47 0
-3 15 -4 22 -5 29 6 -36 12 -30 14 -44 20 -38 21 -45 27 -39 -28 46 34 -40 35 -47 0
3 -15 -4 22 -5 29 6 -36 12 -30 14 -44 20 -38 21 -45 27 -39 -28 46 34 -40 35 -47 0
-3 15 4 -22 -5 29 6 -36 12 -30 14 -44 20 -38 21 -45 27 -39 -28 46 34 -40 35 -47 0
3 -15 4 -22 -5 29 6 -36 12 -30 14 -44 20 -38 21 -45 27 -39 -28 46 34 -40 35 -47 0
-3 -15 -4 -22 5 -29 -6 36 12 -30 14 -44 20 -38 21 -45 27 -39 -28 46 34 -40 35 -47 0
-3 -15 4 -22 5 -29 -6 36 12 -30 14 -44 20 -38 21 -45 27 -39 -28 46 34 -40 35 -47 0
-3 -15 -4 22 5 -29 -6 36 12 -30 14 -44 20 -38 21 -45 27 -39 -28 46 34 -40 35 -47 0
3 -15 -4 -22 5 -29 -6 36 12 -30 14 -44 20 -38 21 -45 27 -39 -28 46 34 -40 35 -47 0
3 -15 4 -22 5 -29 -6 36 12 -30 14 -44 20 -38 21 -45 27 -39 -28 46 34 -40 35 -47 0
3 -15 -4 22 5 -29 -6 36 12 -30 14 -44 20 -38 21 -45 27 -39 -28 46 34 -40 35 -47 0
-3 15 -4 -22 5 -29 -6 36 12 -30 14 -44 20 -38 21 -45 27 -39 -28 46 34 -40 35 -47 0
-3 15 4 -22 5 -29 -6 36 12 -30 14 -44 20 -38 21 -45 27 -39 -28 46 34 -40 35 -47 0
-3 15 -4 22 5 -29 -6 36 12 -30 14 -44 20 -38 21 -45 27 -39 -28 46 34 -40 35 -47 0
-3 -15 -4 -22 -5 29 -6 36 12 -30 14 -44 20 -38 21 -45 27 -39 -28 46 34 -40 35 -47 0
-3 -15 -4 22 -5 29 -6 36 12 -30 14 -44 20 -38 21 -45 27 -39 -28 46 34 -40 35 -47 0
-3 -15 4 -22 -5 29 -6 36 12 -30 14 -44 20 -38 21 -45 27 -39 -28 46 34 -40 35 -47 0
3 -15 -4 -22 -5 29 -6 36 12 -30 14 -44 20 -38 21 -45 27 -39 -28 46 34 -40 35 -47 0
3 -15 -4 22 -5 29 -6 36 12 -30 14 -44 20 -38 21 -45 27 -39 -28 46 34 -40 35 -47 0
3 -15 4 -22 -5 29 -6 36 12 -30 14 -44 20 -38 21 -45 27 -39 -28 46 34 -40 35 -47 0
-3 15 -4 -22 -5 29 -6 36 12 -30 14 -44 20 -38 21 -45 27 -39 -28 46 34 -40 35 -47 0
-3 15 -4 22 -5 29 -6 36 12 -30 14 -44 20 -38 21 -45 27 -39 -28 46 34 -40 35 -47 0
-3 15 4 -22 -5 29 -6 36 12 -30 14 -44 20 -38 21 -45 27 -39 -28 46 34 -40 35 -47 0
-3 -15 -4 -22 5 -29 6 -36 -12 30 14 -44 20 -38 21 -45 27 -39 -28 46 34 -40 35 -47 0
-3 -15 -4 22 5 -29 6 -36 -12 30 14 -44 20 -38 21 -45 27 -39 -28 46 34 -40 35 -47 0
-3 -15 4 -22 5 -29 6 -36 -12 30 14 -44 20 -38 21 -45 27 -39 -28 46 34 -40 35 -47 0
3 -15 -4 -22 5 -29 6 -36 -12 30 14 -44 20 -38 21 -45 27 -39 -28 46 34 -40 35 -47 0
3 -15 -4 22 5 -29 6 -36 -12 30 14 -44 20 -38 21 -45 27 -39 -28 46 34 -40 35 -47 0
3 -15 4 -22 5 -29 6 -36 -12 30 14 -44 20 -38 21 -45 27 -39 -28 46 34 -40 35 -47 0
-3 15 -4 -22 5 -29 6 -36 -12 30 14 -44 20 -38 21 -45 27 -39 -28 46 34 -40 35 -47 0
-3 15 -4 22 5 -29 6 -36 -12 30 14 -44 20 -38 21 -45 27 -39 -28 46 34 -40 35 -47 0
-3 15 4 -22 5 -29 6 -36 -12 30 14 -44 20 -38 21 -45 27 -39 -28 46 34 -40 35 -47 0
-3 -15 -4 -22 -5 29 6 -36 -12 30 14 -44 20 -38 21 -45 27 -39 -28 46 34 -40 35 -47 0
-3 -15 -4 22 -5 29 6 -36 -12 30 14 -44 20 -38 21 -45 27 -39 -28 46 34 -40 35 -47 0
-3 -15 4 -22 -5 29 6 -36 -12 30 14 -44 20 -38 21 -45 27 -39 -28 46 34 -40 35 -47 0
3 -15 -4 -22 -5 29 6 -36 -12 30 14 -44 20 -38 21 -45 27 -39 -28 46 34 -40 35 -47 0
3 -15 4 -22 -5 29 6 -36 -12 30 14 -44 20 -38 21 -45 27 -39 -28 46 34 -40 35 -47 0
3 -15 -4 22 -5 29 6 -36 -12 30 14 -44 20 -38 21 -45 27 -39 -28 46 34 -40 35 -47 0
-3 15 -4 -22 -5 29 6 -36 -12 30 14 -44 20 -38 21 -45 27 -39 -28 46 34 -40 35 -47 0
-3 15 4 -22 -5 29 6 -36 -12 30 14 -44 20 -38 21 -45 27 -39 -28 46 34 -40 35 -47 0
-3 15 -4 22 -5 29 6 -36 -12 30 14 -44 20 -38 21 -45 27 -39 -28 46 34 -40 35 -47 0
-3 -15 -4 -22 5 -29 -6 36 -12 30 14 -44 20 -38 21 -45 27 -39 -28 46 34 -40 35 -47 0
-3 -15 4 -22 5 -29 -6 36 -12 30 14 -44 20 -38 21 -45 27 -39 -28 46 34 -40 35 -47 0
-3 -15 -4 22 5 -29 -6 36 -12 30 14 -44 20 -38 21 -45 27 -39 -28 46 34 -40 35 -47 0
3 -15 -4 -22 5 -29 -6 36 -12 30 14 -44 20 -38 21 -45 27 -39 -28 46 34 -40 35 -47 0
3 -15 4 -22 5 -29 -6 36 -12 30 14 -44 20 -38 21 -45 27 -39 -28 46 34 -40 35 -47 0
3 -15 -4 22 5 -29 -6 36 -12 30 14 -44 20 -38 21 -45 27 -39 -28 46 34 -40 35 -47 0
-3 15 -4 -22 5 -29 -6 36 -12 30 14 -44 20 -38 21 -45 27 -39 -28 46 34 -40 35 -47 0
-3 15 4 -22 5 -29 -6 36 -12 30 14 -44 20 -38 21 -45 27 -39 -28 46 34 -40 35 -47 0
-3 15 -4 22 5 -29 -6 36 -12 30 14 -44 20 -38 21 -45 27 -39 -28 46 34 -40 35 -47 0
-3 -15 -4 -22 -5 29 -6 36 -12 30 14 -44 20 -38 21 -45 27 -39 -28 46 34 -40 35 -47 0
-3 -15 -4 22 -5 29 -6 36 -12 30 14 -44 20 -38 21 -45 27 -39 -28 46 34 -40 35 -47 0
-3 -15 4 -22 -5 29 -6 36 -12 30 14 -44 20 -38 21 -45 27 -39 -28 46 34 -40 35 -47 0
3 -15 -4 -22 -5 29 -6 36 -12 30 14 -44 20 -38 21 -45 27 -39 -28 46 34 -40 35 -47 0
-3 15 -4 -22 -5 29 -6 36 -12 30 14 -44 20 -38 21 -45 27 -39 -28 46 34 -40 35 -47 0
3 -15 -4 22 -5 29 -6 36 -12 30 14 -44 20 -38 21 -45 27 -39 -28 46 34 -40 35 -47 0
-3 15 -4 22 -5 29 -6 36 -12 30 14 -44 20 -38 21 -45 27 -39 -28 46 34 -40 35 -47 0
3 -15 4 -22 -5 29 -6 36 -12 30 14 -44 20 -38 21 -45 27 -39 -28 46 34 -40 35 -47 0
-3 15 4 -22 -5 29 -6 36 -12 30 14 -44 20 -38 21 -45 27 -39 -28 46 34 -40 35 -47 0
-3 -15 -4 -22 5 -29 6 -36 12 -30 -14 44 20 -38 21 -45 27 -39 -28 46 34 -40 35 -47 0
3 -15 -4 -22 5 -29 6 -36 12 -30 -14 44 20 -38 21 -45 27 -39 -28 46 34 -40 35 -47 0
-3 15 -4 -22 5 -29 6 -36 12 -30 -14 44 20 -38 21 -45 27 -39 -28 46 34 -40 35 -47 0
-3 -15 -4 22 5 -29 6 -36 12 -30 -14 44 20 -38 21 -45 27 -39 -28 46 34 -40 35 -47 0
3 -15 -4 22 5 -29 6 -36 12 -30 -14 44 20 -38 21 -45 27 -39 -28 46 34 -40 35 -47 0
-3 15 -4 22 5 -29 6 -36 12 -30 -14 44 20 -38 21 -45 27 -39 -28 46 34 -40 35 -47 0
-3 -15 4 -22 5 -29 6 -36 12 -30 -14 44 20 -38 21 -45 27 -39 -28 46 34 -40 35 -47 0
3 -15 4 -22 5 -29 6 -36 12 -30 -14 44 20 -38 21 -45 27 -39 -28 46 34 -40 35 -47 0
-3 15 4 -22 5 -29 6 -36 12 -30 -14 44 20 -38 21 -45 27 -39 -28 46 34 -40 35 -47 0
-3 -15 -4 -22 -5 29 6 -36 12 -30 -14 44 20 -38 21 -45 27 -39 -28 46 34 -40 35 -47 0
-3 -15 -4 22 -5 29 6 -36 12 -30 -14 44 20 -38 21 -45 27 -39 -28 46 34 -40 35 -47 0
-3 -15 4 -22 -5 29 6 -36 12 -30 -14 44 20 -38 21 -45 27 -39 -28 46 34 -40 35 -47 0
3 -15 -4 -22 -5 29 6 -36 12 -30 -14 44 20 -38 21 -45 27 -39 -28 46 34 -40 35 -47 0
3 -15 -4 22 -5 29 6 -36 12 -30 -14 44 20 -38 21 -45 27 -39 -28 46 34 -40 35 -47 0
3 -15 4 -22 -5 29 6 -36 12 -30 -14 44 20 -38 21 -45 27 -39 -28 46 34 -40 35 -47 0
-3 15 -4 -22 -5 29 6 -36 12 -30 -14 44 20 -38 21 -45 27 -39 -28 46 34 -40 35 -47 0
-3 15 4 -22 -5 29 6 -36 12 -30 -14 44 20 -38 21 -45 27 -39 -28 46 34 -40 35 -47 0
-3 15 -4 22 -5 29 6 -36 12 -30 -14 44 20 -38 21 -45 27 -39 -28 46 34 -40 35 -47 0
-3 -15 -4 -22 5 -29 -6 36 12 -30 -14 44 20 -38 21 -45 27 -39 -28 46 34 -40 35 -47 0
3 -15 -4 -22 5 -29 -6 36 12 -30 -14 44 20 -38 21 -45 27 -39 -28 46 34 -40 35 -47 0
-3 15 -4 -22 5 -29 -6 36 12 -30 -14 44 20 -38 21 -45 27 -39 -28 46 34 -40 35 -47 0
-3 -15 4 -22 5 -29 -6 36 12 -30 -14 44 20 -38 21 -45 27 -39 -28 46 34 -40 35 -47 0
3 -15 4 -22 5 -29 -6 36 12 -30 -14 44 20 -38 21 -45 27 -39 -28 46 34 -40 35 -47 0
-3 15 4 -22 5 -29 -6 36 12 -30 -14 44 20 -38 21 -45 27 -39 -28 46 34 -40 35 -47 0
-3 -15 -4 22 5 -29 -6 36 12 -30 -14 44 20 -38 21 -45 27 -39 -28 46 34 -40 35 -47 0
3 -15 -4 22 5 -29 -6 36 12 -30 -14 44 20 -38 21 -45 27 -39 -28 46 34 -40 35 -47 0
-3 15 -4 22 5 -29 -6 36 12 -30 -14 44 20 -38 21 -45 27 -39 -28 46 34 -40 35 -47 0
-3 -15 -4 -22 -5 29 -6 36 12 -30 -14 44 20 -38 21 -45 27 -39 -28 46 34 -40 35 -47 0
3 -15 -4 -22 -5 29 -6 36 12 -30 -14 44 20 -38 21 -45 27 -39 -28 46 34 -40 35 -47 0
-3 15 -4 -22 -5 29 -6 36 12 -30 -14 44 20 -38 21 -45 27 -39 -28 46 34 -40 35 -47 0
-3 -15 4 -22 -5 29 -6 36 12 -30 -14 44 20 -38 21 -45 27 -39 -28 46 34 -40 35 -47 0
3 -15 4 -22 -5 29 -6 36 12 -30 -14 44 20 -38 21 -45 27 -39 -28 46 34 -40 35 -47 0
-3 -15 -4 22 -5 29 -6 36 12 -30 -14 44 20 -38 21 -45 27 -39 -28 46 34 -40 35 -47 0
-3 15 4 -22 -5 29 -6 36 12 -30 -14 44 20 -38 21 -45 27 -39 -28 46 34 -40 35 -47 0
-3 15 -4 22 -5 29 -6 36 12 -30 -14 44 20 -38 21 -45 27 -39 -28 46 34 -40 35 -47 0
3 -15 -4 22 -5 29 -6 36 12 -30 -14 44 20 -38 21 -45 27 -39 -28 46 34 -40 35 -47 0
-3 -15 -4 -22 5 -29 6 -36 -12 30 -14 44 20 -38 21 -45 27 -39 -28 46 34 -40 35 -47 0
-3 -15 4 -22 5 -29 6 -36 -12 30 -14 44 20 -38 21 -45 27 -39 -28 46 34 -40 35 -47 0
-3 -15 -4 22 5 -29 6 -36 -12 30 -14 44 20 -38 21 -45 27 -39 -28 46 34 -40 35 -47 0
3 -15 -4 -22 5 -29 6 -36 -12 30 -14 44 20 -38 21 -45 27 -39 -28 46 34 -40 35 -47 0
3 -15 4 -22 5 -29 6 -36 -12 30 -14 44 20 -38 21 -45 27 -39 -28 46 34 -40 35 -47 0
3 -15 -4 22 5 -29 6 -36 -12 30 -14 44 20 -38 21 -45 27 -39 -28 46 34 -40 35 -47 0
-3 15 -4 -22 5 -29 6 -36 -12 30 -14 44 20 -38 21 -45 27 -39 -28 46 34 -40 35 -47 0
-3 15 4 -22 5 -29 6 -36 -12 30 -14 44 20 -38 21 -45 27 -39 -28 46 34 -40 35 -47 0
-3 15 -4 22 5 -29 6 -36 -12 30 -14 44 20 -38 21 -45 27 -39 -28 46 34 -40 35 -47 0
-3 -15 -4 -22 -5 29 6 -36 -12 30 -14 44 20 -38 21 -45 27 -39 -28 46 34 -40 35 -47 0
-3 -15 4 -22 -5 29 6 -36 -12 30 -14 44 20 -38 21 -45 27 -39 -28 46 34 -40 35 -47 0
3 -15 -4 -22 -5 29 6 -36 -12 30 -14 44 20 -38 21 -45 27 -39 -28 46 34 -40 35 -47 0
-3 15 -4 -22 -5 29 6 -36 -12 30 -14 44 20 -38 21 -45 27 -39 -28 46 34 -40 35 -47 0
3 -15 4 -22 -5 29 6 -36 -12 30 -14 44 20 -38 21 -45 27 -39 -28 46 34 -40 35 -47 0
-3 15 4 -22 -5 29 6 -36 -12 30 -14 44 20 -38 21 -45 27 -39 -28 46 34 -40 35 -47 0
-3 -15 -4 22 -5 29 6 -36 -12 30 -14 44 20 -38 21 -45 27 -39 -28 46 34 -40 35 -47 0
3 -15 -4 22 -5 29 6 -36 -12 30 -14 44 20 -38 21 -45 27 -39 -28 46 34 -40 35 -47 0
-3 15 -4 22 -5 29 6 -36 -12 30 -14 44 20 -38 21 -45 27 -39 -28 46 34 -40 35 -47 0
-3 -15 -4 -22 5 -29 -6 36 -12 30 -14 44 20 -38 21 -45 27 -39 -28 46 34 -40 35 -47 0
3 -15 -4 -22 5 -29 -6 36 -12 30 -14 44 20 -38 21 -45 27 -39 -28 46 34 -40 35 -47 0
-3 15 -4 -22 5 -29 -6 36 -12 30 -14 44 20 -38 21 -45 27 -39 -28 46 34 -40 35 -47 0
-3 -15 4 -22 5 -29 -6 36 -12 30 -14 44 20 -38 21 -45 27 -39 -28 46 34 -40 35 -47 0
-3 15 4 -22 5 -29 -6 36 -12 30 -14 44 20 -38 21 -45 27 -39 -28 46 34 -40 35 -47 0
3 -15 4 -22 5 -29 -6 36 -12 30 -14 44 20 -38 21 -45 27 -39 -28 46 34 -40 35 -47 0
-3 -15 -4 22 5 -29 -6 36 -12 30 -14 44 20 -38 21 -45 27 -39 -28 46 34 -40 35 -47 0
-3 15 -4 22 5 -29 -6 36 -12 30 -14 44 20 -38 21 -45 27 -39 -28 46 34 -40 35 -47 0
3 -15 -4 22 5 -29 -6 36 -12 30 -14 44 20 -38 21 -45 27 -39 -28 46 34 -40 35 -47 0
-3 -15 -4 -22 -5 29 -6 36 -12 30 -14 44 20 -38 21 -45 27 -39 -28 46 34 -40 35 -47 0
-3 15 -4 -22 -5 29 -6 36 -12 30 -14 44 20 -38 21 -45 27 -39 -28 46 34 -40 35 -47 0
3 -15 -4 -22 -5 29 -6 36 -12 30 -14 44 20 -38 21 -45 27 -39 -28 46 34 -40 35 -47 0
-3 -15 4 -22 -5 29 -6 36 -12 30 -14 44 20 -38 21 -45 27 -39 -28 46 34 -40 35 -47 0
-3 -15 -4 22 -5 29 -6 36 -12 30 -14 44 20 -38 21 -45 27 -39 -28 46 34 -40 35 -47 0
3 -15 -4 22 -5 29 -6 36 -12 30 -14 44 20 -38 21 -45 27 -39 -28 46 34 -40 35 -47 0
-3 15 -4 22 -5 29 -6 36 -12 30 -14 44 20 -38 21 -45 27 -39 -28 46 34 -40 35 -47 0
3 -15 4 -22 -5 29 -6 36 -12 30 -14 44 20 -38 21 -45 27 -39 -28 46 34 -40 35 -47 0
-3 15 4 -22 -5 29 -6 36 -12 30 -14 44 20 -38 21 -45 27 -39 -28 46 34 -40 35 -47 0
-3 -15 -4 -22 5 -29 6 -36 12 -30 14 -44 -20 38 21 -45 27 -39 -28 46 34 -40 35 -47 0
3 -15 -4 -22 5 -29 6 -36 12 -30 14 -44 -20 38 21 -45 27 -39 -28 46 34 -40 35 -47 0
-3 15 -4 -22 5 -29 6 -36 12 -30 14 -44 -20 38 21 -45 27 -39 -28 46 34 -40 35 -47 0
-3 -15 -4 22 5 -29 6 -36 12 -30 14 -44 -20 38 21 -45 27 -39 -28 46 34 -40 35 -47 0
3 -15 -4 22 5 -29 6 -36 12 -30 14 -44 -20 38 21 -45 27 -39 -28 46 34 -40 35 -47 0
-3 15 -4 22 5 -29 6 -36 12 -30 14 -44 -20 38 21 -45 27 -39 -28 46 34 -40 35 -47 0
-3 -15 4 -22 5 -29 6 -36 12 -30 14 -44 -20 38 21 -45 27 -39 -28 46 34 -40 35 -47 0
3 -15 4 -22 5 -29 6 -36 12 -30 14 -44 -20 38 21 -45 27 -39 -28 46 34 -40 35 -47 0
-3 15 4 -22 5 -29 6 -36 12 -30 14 -44 -20 38 21 -45 27 -39 -28 46 34 -40 35 -47 0
-3 -15 -4 -22 -5 29 6 -36 12 -30 14 -44 -20 38 21 -45 27 -39 -28 46 34 -40 35 -47 0
3 -15 -4 -22 -5 29 6 -36 12 -30 14 -44 -20 38 21 -45 27 -39 -28 46 34 -40 35 -47 0
-3 15 -4 -22 -5 29 6 -36 12 -30 14 -44 -20 38 21 -45 27 -39 -28 46 34 -40 35 -47 0
-3 -15 -4 22 -5 29 6 -36 12 -30 14 -44 -20 38 21 -45 27 -39 -28 46 34 -40 35 -47 0
3 -15 -4 22 -5 29 6 -36 12 -30 14 -44 -20 38 21 -45 27 -39 -28 46 34 -40 35 -47 0
-3 15 -4 22 -5 29 6 -36 12 -30 14 -44 -20 38 21 -45 27 -39 -28 46 34 -40 35 -47 0
-3 -15 4 -22 -5 29 6 -36 12 -30 14 -44 -20 38 21 -45 27 -39 -28 46 34 -40 35 -47 0
3 -15 4 -22 -5 29 6 -36 12 -30 14 -44 -20 38 21 -45 27 -39 -28 46 34 -40 35 -47 0
-3 15 4 -22 -5 29 6 -36 12 -30 14 -44 -20 38 21 -45 27 -39 -28 46 34 -40 35 -47 0
-3 -15 -4 -22 5 -29 -6 36 12 -30 14 -44 -20 38 21 -45 27 -39 -28 46 34 -40 35 -47 0
3 -15 -4 -22 5 -29 -6 36 12 -30 14 -44 -20 38 21 -45 27 -39 -28 46 34 -40 35 -47 0
-3 15 -4 -22 5 -29 -6 36 12 -30 14 -44 -20 38 21 -45 27 -39 -28 46 34 -40 35 -47 0
-3 -15 -4 22 5 -29 -6 36 12 -30 14 -44 -20 38 21 -45 27 -39 -28 46 34 -40 35 -47 0
3 -15 -4 22 5 -29 -6 36 12 -30 14 -44 -20 38 21 -45 27 -39 -28 46 34 -40 35 -47 0
-3 15 -4 22 5 -29 -6 36 12 -30 14 -44 -20 38 21 -45 27 -39 -28 46 34 -40 35 -47 0
-3 -15 4 -22 5 -29 -6 36 12 -30 14 -44 -20 38 21 -45 27 -39 -28 46 34 -40 35 -47 0
3 -15 4 -22 5 -29 -6 36 12 -30 14 -44 -20 38 21 -45 27 -39 -28 46 34 -40 35 -47 0
-3 15 4 -22 5 -29 -6 36 12 -30 14 -44 -20 38 21 -45 27 -39 -28 46 34 -40 35 -47 0
-3 -15 -4 -22 -5 29 -6 36 12 -30 14 -44 -20 38 21 -45 27 -39 -28 46 34 -40 35 -47 0
3 -15 -4 -22 -5 29 -6 36 12 -30 14 -44 -20 38 21 -45 27 -39 -28 46 34 -40 35 -47 0
-3 15 -4 -22 -5 29 -6 36 12 -30 14 -44 -20 38 21 -45 27 -39 -28 46 34 -40 35 -47 0
-3 -15 -4 22 -5 29 -6 36 12 -30 14 -44 -20 38 21 -45 27 -39 -28 46 34 -40 35 -47 0
3 -15 -4 22 -5 29 -6 36 12 -30 14 -44 -20 38 21 -45 27 -39 -28 46 34 -40 35 -47 0
-3 15 -4 22 -5 29 -6 36 12 -30 14 -44 -20 38 21 -45 27 -39 -28 46 34 -40 35 -47 0
-3 -15 4 -22 -5 29 -6 36 12 -30 14 -44 -20 38 21 -45 27 -39 -28 46 34 -40 35 -47 0
3 -15 4 -22 -5 29 -6 36 12 -30 14 -44 -20 38 21 -45 27 -39 -28 46 34 -40 35 -47 0
-3 15 4 -22 -5 29 -6 36 12 -30 14 -44 -20 38 21 -45 27 -39 -28 46 34 -40 35 -47 0
-3 -15 -4 -22 5 -29 6 -36 -12 30 14 -44 -20 38 21 -45 27 -39 -28 46 34 -40 35 -47 0
3 -15 -4 -22 5 -29 6 -36 -12 30 14 -44 -20 38 21 -45 27 -39 -28 46 34 -40 35 -47 0
-3 15 -4 -22 5 -29 6 -36 -12 30 14 -44 -20 38 21 -45 27 -39 -28 46 34 -40 35 -47 0
-3 -15 -4 22 5 -29 6 -36 -12 30 14 -44 -20 38 21 -45 27 -39 -28 46 34 -40 35 -47 0
3 -15 -4 22 5 -29 6 -36 -12 30 14 -44 -20 38 21 -45 27 -39 -28 46 34 -40 35 -47 0
-3 15 -4 22 5 -29 6 -36 -12 30 14 -44 -20 38 21 -45 27 -39 -28 46 34 -40 35 -47 0
-3 -15 4 -22 5 -29 6 -36 -12 30 14 -44 -20 38 21 -45 27 -39 -28 46 34 -40 35 -47 0
3 -15 4 -22 5 -29 6 -36 -12 30 14 -44 -20 38 21 -45 27 -39 -28 46 34 -40 35 -47 0
-3 15 4 -22 5 -29 6 -36 -12 30 14 -44 -20 38 21 -45 27 -39 -28 46 34 -40 35 -47 0
-3 -15 -4 -22 -5 29 6 -36 -12 30 14 -44 -20 38 21 -45 27 -39 -28 46 34 -40 35 -47 0
3 -15 -4 -22 -5 29 6 -36 -12 30 14 -44 -20 38 21 -45 27 -39 -28 46 34 -40 35 -47 0
-3 15 -4 -22 -5 29 6 -36 -12 30 14 -44 -20 38 21 -45 27 -39 -28 46 34 -40 35 -47 0
-3 -15 -4 22 -5 29 6 -36 -12 30 14 -44 -20 38 21 -45 27 -39 -28 46 34 -40 35 -47 0
3 -15 -4 22 -5 29 6 -36 -12 30 14 -44 -20 38 21 -45 27 -39 -28 46 34 -40 35 -47 0
-3 15 -4 22 -5 29 6 -36 -12 30 14 -44 -20 38 21 -45 27 -39 -28 46 34 -40 35 -47 0
-3 -15 4 -22 -5 29 6 -36 -12 30 14 -44 -20 38 21 -45 27 -39 -28 46 34 -40 35 -47 0
3 -15 4 -22 -5 29 6 -36 -12 30 14 -44 -20 38 21 -45 27 -39 -28 46 34 -40 35 -47 0
-3 15 4 -22 -5 29 6 -36 -12 30 14 -44 -20 38 21 -45 27 -39 -28 46 34 -40 35 -47 0
-3 -15 -4 -22 5 -29 -6 36 -12 30 14 -44 -20 38 21 -45 27 -39 -28 46 34 -40 35 -47 0
3 -15 -4 -22 5 -29 -6 36 -12 30 14 -44 -20 38 21 -45 27 -39 -28 46 34 -40 35 -47 0
-3 15 -4 -22 5 -29 -6 36 -12 30 14 -44 -20 38 21 -45 27 -39 -28 46 34 -40 35 -47 0
-3 -15 -4 22 5 -29 -6 36 -12 30 14 -44 -20 38 21 -45 27 -39 -28 46 34 -40 35 -47 0
3 -15 -4 22 5 -29 -6 36 -12 30 14 -44 -20 38 21 -45 27 -39 -28 46 34 -40 35 -47 0
-3 15 -4 22 5 -29 -6 36 -12 30 14 -44 -20 38 21 -45 27 -39 -28 46 34 -40 35 -47 0
-3 -15 4 -22 5 -29 -6 36 -12 30 14 -44 -20 38 21 -45 27 -39 -28 46 34 -40 35 -47 0
3 -15 4 -22 5 -29 -6 36 -12 30 14 -44 -20 38 21 -45 27 -39 -28 46 34 -40 35 -47 0
-3 15 4 -22 5 -29 -6 36 -12 30 14 -44 -20 38 21 -45 27 -39 -28 46 34 -40 35 -47 0
-3 -15 -4 -22 -5 29 -6 36 -12 30 14 -44 -20 38 21 -45 27 -39 -28 46 34 -40 35 -47 0
3 -15 -4 -22 -5 29 -6 36 -12 30 14 -44 -20 38 21 -45 27 -39 -28 46 34 -40 35 -47 0
-3 15 -4 -22 -5 29 -6 36 -12 30 14 -44 -20 38 21 -45 27 -39 -28 46 34 -40 35 -47 0
-3 -15 -4 22 -5 29 -6 36 -12 30 14 -44 -20 38 21 -45 27 -39 -28 46 34 -40 35 -47 0
3 -15 -4 22 -5 29 -6 36 -12 30 14 -44 -20 38 21 -45 27 -39 -28 46 34 -40 35 -47 0
-3 15 -4 22 -5 29 -6 36 -12 30 14 -44 -20 38 21 -45 27 -39 -28 46 34 -40 35 -47 0
-3 -15 4 -22 -5 29 -6 36 -12 30 14 -44 -20 38 21 -45 27 -39 -28 46 34 -40 35 -47 0
3 -15 4 -22 -5 29 -6 36 -12 30 14 -44 -20 38 21 -45 27 -39 -28 46 34 -40 35 -47 0
-3 15 4 -22 -5 29 -6 36 -12 30 14 -44 -20 38 21 -45 27 -39 -28 46 34 -40 35 -47 0
-3 -15 -4 -22 5 -29 6 -36 12 -30 -14 44 -20 38 21 -45 27 -39 -28 46 34 -40 35 -47 0
3 -15 -4 -22 5 -29 6 -36 12 -30 -14 44 -20 38 21 -45 27 -39 -28 46 34 -40 35 -47 0
-3 15 -4 -22 5 -29 6 -36 12 -30 -14 44 -20 38 21 -45 27 -39 -28 46 34 -40 35 -47 0
-3 -15 -4 22 5 -29 6 -36 12 -30 -14 44 -20 38 21 -45 27 -39 -28 46 34 -40 35 -47 0
3 -15 -4 22 5 -29 6 -36 12 -30 -14 44 -20 38 21 -45 27 -39 -28 46 34 -40 35 -47 0
-3 15 -4 22 5 -29 6 -36 12 -30 -14 44 -20 38 21 -45 27 -39 -28 46 34 -40 35 -47 0
-3 -15 4 -22 5 -29 6 -36 12 -30 -14 44 -20 38 21 -45 27 -39 -28 46 34 -40 35 -47 0
3 -15 4 -22 5 -29 6 -36 12 -30 -14 44 -20 38 21 -45 27 -39 -28 46 34 -40 35 -47 0
-3 15 4 -22 5 -29 6 -36 12 -30 -14 44 -20 38 21 -45 27 -39 -28 46 34 -40 35 -47 0
-3 -15 -4 -22 -5 29 6 -36 12 -30 -14 44 -20 38 21 -45 27 -39 -28 46 34 -40 35 -47 0
3 -15 -4 -22 -5 29 6 -36 12 -30 -14 44 -20 38 21 -45 27 -39 -28 46 34 -40 35 -47 0
-3 15 -4 -22 -5 29 6 -36 12 -30 -14 44 -20 38 21 -45 27 -39 -28 46 34 -40 35 -47 0
-3 -15 -4 22 -5 29 6 -36 12 -30 -14 44 -20 38 21 -45 27 -39 -28 46 34 -40 35 -47 0
3 -15 -4 22 -5 29 6 -36 12 -30 -14 44 -20 38 21 -45 27 -39 -28 46 34 -40 35 -47 0
-3 15 -4 22 -5 29 6 -36 12 -30 -14 44 -20 38 21 -45 27 -39 -28 46 34 -40 35 -47 0
-3 -15 4 -22 -5 29 6 -36 12 -30 -14 44 -20 38 21 -45 27 -39 -28 46 34 -40 35 -47 0
3 -15 4 -22 -5 29 6 -36 12 -30 -14 44 -20 38 21 -45 27 -39 -28 46 34 -40 35 -47 0
-3 15 4 -22 -5 29 6 -36 12 -30 -14 44 -20 38 21 -45 27 -39 -28 46 34 -40 35 -47 0
-3 -15 -4 -22 5 -29 -6 36 12 -30 -14 44 -20 38 21 -45 27 -39 -28 46 34 -40 35 -47 0
3 -15 -4 -22 5 -29 -6 36 12 -30 -14 44 -20 38 21 -45 27 -39 -28 46 34 -40 35 -47 0
-3 15 -4 -22 5 -29 -6 36 12 -30 -14 44 -20 38 21 -45 27 -39 -28 46 34 -40 35 -47 0
-3 -15 -4 22 5 -29 -6 36 12 -30 -14 44 -20 38 21 -45 27 -39 -28 46 34 -40 35 -47 0
3 -15 -4 22 5 -29 -6 36 12 -30 -14 44 -20 38 21 -45 27 -39 -28 46 34 -40 35 -47 0
-3 15 -4 22 5 -29 -6 36 12 -30 -14 44 -20 38 21 -45 27 -39 -28 46 34 -40 35 -47 0
-3 -15 4 -22 5 -29 -6 36 12 -30 -14 44 -20 38 21 -45 27 -39 -28 46 34 -40 35 -47 0
3 -15 4 -22 5 -29 -6 36 12 -30 -14 44 -20 38 21 -45 27 -39 -28 46 34 -40 35 -47 0
-3 15 4 -22 5 -29 -6 36 12 -30 -14 44 -20 38 21 -45 27 -39 -28 46 34 -40 35 -47 0
-3 -15 -4 -22 -5 29 -6 36 12 -30 -14 44 -20 38 21 -45 27 -39 -28 46 34 -40 35 -47 0
3 -15 -4 -22 -5 29 -6 36 12 -30 -14 44 -20 38 21 -45 27 -39 -28 46 34 -40 35 -47 0
-3 15 -4 -22 -5 29 -6 36 12 -30 -14 44 -20 38 21 -45 27 -39 -28 46 34 -40 35 -47 0
-3 -15 -4 22 -5 29 -6 36 12 -30 -14 44 -20 38 21 -45 27 -39 -28 46 34 -40 35 -47 0
3 -15 -4 22 -5 29 -6 36 12 -30 -14 44 -20 38 21 -45 27 -39 -28 46 34 -40 35 -47 0
-3 15 -4 22 -5 29 -6 36 12 -30 -14 44 -20 38 21 -45 27 -39 -28 46 34 -40 35 -47 0
-3 -15 4 -22 -5 29 -6 36 12 -30 -14 44 -20 38 21 -45 27 -39 -28 46 34 -40 35 -47 0
3 -15 4 -22 -5 29 -6 36 12 -30 -14 44 -20 38 21 -45 27 -39 -28 46 34 -40 35 -47 0
-3 15 4 -22 -5 29 -6 36 12 -30 -14 44 -20 38 21 -45 27 -39 -28 46 34 -40 35 -47 0
-3 -15 -4 -22 5 -29 6 -36 -12 30 -14 44 -20 38 21 -45 27 -39 -28 46 34 -40 35 -47 0
3 -15 -4 -22 5 -29 6 -36 -12 30 -14 44 -20 38 21 -45 27 -39 -28 46 34 -40 35 -47 0
-3 15 -4 -22 5 -29 6 -36 -12 30 -14 44 -20 38 21 -45 27 -39 -28 46 34 -40 35 -47 0
-3 -15 -4 22 5 -29 6 -36 -12 30 -14 44 -20 38 21 -45 27 -39 -28 46 34 -40 35 -47 0
3 -15 -4 22 5 -29 6 -36 -12 30 -14 44 -20 38 21 -45 27 -39 -28 46 34 -40 35 -47 0
-3 15 -4 22 5 -29 6 -36 -12 30 -14 44 -20 38 21 -45 27 -39 -28 46 34 -40 35 -47 0
-3 -15 4 -22 5 -29 6 -36 -12 30 -14 44 -20 38 21 -45 27 -39 -28 46 34 -40 35 -47 0
3 -15 4 -22 5 -29 6 -36 -12 30 -14 44 -20 38 21 -45 27 -39 -28 46 34 -40 35 -47 0
-3 15 4 -22 5 -29 6 -36 -12 30 -14 44 -20 38 21 -45 27 -39 -28 46 34 -40 35 -47 0
-3 -15 -4 -22 -5 29 6 -36 -12 30 -14 44 -20 38 21 -45 27 -39 -28 46 34 -40 35 -47 0
3 -15 -4 -22 -5 29 6 -36 -12 30 -14 44 -20 38 21 -45 27 -39 -28 46 34 -40 35 -47 0
-3 15 -4 -22 -5 29 6 -36 -12 30 -14 44 -20 38 21 -45 27 -39 -28 46 34 -40 35 -47 0
-3 -15 -4 22 -5 29 6 -36 -12 30 -14 44 -20 38 21 -45 27 -39 -28 46 34 -40 35 -47 0
3 -15 -4 22 -5 29 6 -36 -12 30 -14 44 -20 38 21 -45 27 -39 -28 46 34 -40 35 -47 0
-3 15 -4 22 -5 29 6 -36 -12 30 -14 44 -20 38 21 -45 27 -39 -28 46 34 -40 35 -47 0
-3 -15 4 -22 -5 29 6 -36 -12 30 -14 44 -20 38 21 -45 27 -39 -28 46 34 -40 35 -47 0
3 -15 4 -22 -5 29 6 -36 -12 30 -14 44 -20 38 21 -45 27 -39 -28 46 34 -40 35 -47 0
-3 15 4 -22 -5 29 6 -36 -12 30 -14 44 -20 38 21 -45 27 -39 -28 46 34 -40 35 -47 0
-3 -15 -4 -22 5 -29 -6 36 -12 30 -14 44 -20 38 21 -45 27 -39 -28 46 34 -40 35 -47 0
3 -15 -4 -22 5 -29 -6 36 -12 30 -14 44 -20 38 21 -45 27 -39 -28 46 34 -40 35 -47 0
-3 15 -4 -22 5 -29 -6 36 -12 30 -14 44 -20 38 21 -45 27 -39 -28 46 34 -40 35 -47 0
-3 -15 -4 22 5 -29 -6 36 -12 30 -14 44 -20 38 21 -45 27 -39 -28 46 34 -40 35 -47 0
3 -15 -4 22 5 -29 -6 36 -12 30 -14 44 -20 38 21 -45 27 -39 -28 46 34 -40 35 -47 0
-3 15 -4 22 5 -29 -6 36 -12 30 -14 44 -20 38 21 -45 27 -39 -28 46 34 -40 35 -47 0
-3 -15 4 -22 5 -29 -6 36 -12 30 -14 44 -20 38 21 -45 27 -39 -28 46 34 -40 35 -47 0
3 -15 4 -22 5 -29 -6 36 -12 30 -14 44 -20 38 21 -45 27 -39 -28 46 34 -40 35 -47 0
-3 15 4 -22 5 -29 -6 36 -12 30 -14 44 -20 38 21 -45 27 -39 -28 46 34 -40 35 -47 0
-3 -15 -4 -22 -5 29 -6 36 -12 30 -14 44 -20 38 21 -45 27 -39 -28 46 34 -40 35 -47 0
3 -15 -4 -22 -5 29 -6 36 -12 30 -14 44 -20 38 21 -45 27 -39 -28 46 34 -40 35 -47 0
-3 15 -4 -22 -5 29 -6 36 -12 30 -14 44 -20 38 21 -45 27 -39 -28 46 34 -40 35 -47 0
-3 -15 -4 22 -5 29 -6 36 -12 30 -14 44 -20 38 21 -45 27 -39 -28 46 34 -40 35 -47 0
3 -15 -4 22 -5 29 -6 36 -12 30 -14 44 -20 38 21 -45 27 -39 -28 46 34 -40 35 -47 0
-3 15 -4 22 -5 29 -6 36 -12 30 -14 44 -20 38 21 -45 27 -39 -28 46 34 -40 35 -47 0
-3 -15 4 -22 -5 29 -6 36 -12 30 -14 44 -20 38 21 -45 27 -39 -28 46 34 -40 35 -47 0
3 -15 4 -22 -5 29 -6 36 -12 30 -14 44 -20 38 21 -45 27 -39 -28 46 34 -40 35 -47 0
-3 15 4 -22 -5 29 -6 36 -12 30 -14 44 -20 38 21 -45 27 -39 -28 46 34 -40 35 -47 0
-3 -15 -4 -22 5 -29 6 -36 12 -30 14 -44 20 -38 -21 45 27 -39 -28 46 34 -40 35 -47 0
3 -15 -4 -22 5 -29 6 -36 12 -30 14 -44 20 -38 -21 45 27 -39 -28 46 34 -40 35 -47 0
-3 15 -4 -22 5 -29 6 -36 12 -30 14 -44 20 -38 -21 45 27 -39 -28 46 34 -40 35 -47 0
-3 -15 -4 22 5 -29 6 -36 12 -30 14 -44 20 -38 -21 45 27 -39 -28 46 34 -40 35 -47 0
3 -15 -4 22 5 -29 6 -36 12 -30 14 -44 20 -38 -21 45 27 -39 -28 46 34 -40 35 -47 0
-3 15 -4 22 5 -29 6 -36 12 -30 14 -44 20 -38 -21 45 27 -39 -28 46 34 -40 35 -47 0
-3 -15 4 -22 5 -29 6 -36 12 -30 14 -44 20 -38 -21 45 27 -39 -28 46 34 -40 35 -47 0
3 -15 4 -22 5 -29 6 -36 12 -30 14 -44 20 -38 -21 45 27 -39 -28 46 34 -40 35 -47 0
-3 15 4 -22 5 -29 6 -36 12 -30 14 -44 20 -38 -21 45 27 -39 -28 46 34 -40 35 -47 0
-3 -15 -4 -22 -5 29 6 -36 12 -30 14 -44 20 -38 -21 45 27 -39 -28 46 34 -40 35 -47 0
3 -15 -4 -22 -5 29 6 -36 12 -30 14 -44 20 -38 -21 45 27 -39 -28 46 34 -40 35 -47 0
-3 15 -4 -22 -5 29 6 -36 12 -30 14 -44 20 -38 -21 45 27 -39 -28 46 34 -40 35 -47 0
-3 -15 -4 22 -5 29 6 -36 12 -30 14 -44 20 -38 -21 45 27 -39 -28 46 34 -40 35 -47 0
3 -15 -4 22 -5 29 6 -36 12 -30 14 -44 20 -38 -21 45 27 -39 -28 46 34 -40 35 -47 0
-3 15 -4 22 -5 29 6 -36 12 -30 14 -44 20 -38 -21 45 27 -39 -28 46 34 -40 35 -47 0
-3 -15 4 -22 -5 29 6 -36 12 -30 14 -44 20 -38 -21 45 27 -39 -28 46 34 -40 35 -47 0
3 -15 4 -22 -5 29 6 -36 12 -30 14 -44 20 -38 -21 45 27 -39 -28 46 34 -40 35 -47 0
-3 15 4 -22 -5 29 6 -36 12 -30 14 -44 20 -38 -21 45 27 -39 -28 46 34 -40 35 -47 0
-3 -15 -4 -22 5 -29 -6 36 12 -30 14 -44 20 -38 -21 45 27 -39 -28 46 34 -40 35 -47 0
3 -15 -4 -22 5 -29 -6 36 12 -30 14 -44 20 -38 -21 45 27 -39 -28 46 34 -40 35 -47 0
-3 15 -4 -22 5 -29 -6 36 12 -30 14 -44 20 -38 -21 45 27 -39 -28 46 34 -40 35 -47 0
-3 -15 -4 22 5 -29 -6 36 12 -30 14 -44 20 -38 -21 45 27 -39 -28 46 34 -40 35 -47 0
3 -15 -4 22 5 -29 -6 36 12 -30 14 -44 20 -38 -21 45 27 -39 -28 46 34 -40 35 -47 0
-3 15 -4 22 5 -29 -6 36 12 -30 14 -44 20 -38 -21 45 27 -39 -28 46 34 -40 35 -47 0
-3 -15 4 -22 5 -29 -6 36 12 -30 14 -44 20 -38 -21 45 27 -39 -28 46 34 -40 35 -47 0
3 -15 4 -22 5 -29 -6 36 12 -30 14 -44 20 -38 -21 45 27 -39 -28 46 34 -40 35 -47 0
-3 15 4 -22 5 -29 -6 36 12 -30 14 -44 20 -38 -21 45 27 -39 -28 46 34 -40 35 -47 0
-3 -15 -4 -22 -5 29 -6 36 12 -30 14 -44 20 -38 -21 45 27 -39 -28 46 34 -40 35 -47 0
3 -15 -4 -22 -5 29 -6 36 12 -30 14 -44 20 -38 -21 45 27 -39 -28 46 34 -40 35 -47 0
-3 15 -4 -22 -5 29 -6 36 12 -30 14 -44 20 -38 -21 45 27 -39 -28 46 34 -40 35 -47 0
-3 -15 -4 22 -5 29 -6 36 12 -30 14 -44 20 -38 -21 45 27 -39 -28 46 34 -40 35 -47 0
3 -15 -4 22 -5 29 -6 36 12 -30 14 -44 20 -38 -21 45 27 -39 -28 46 34 -40 35 -47 0
-3 15 -4 22 -5 29 -6 36 12 -30 14 -44 20 -38 -21 45 27 -39 -28 46 34 -40 35 -47 0
-3 -15 4 -22 -5 29 -6 36 12 -30 14 -44 20 -38 -21 45 27 -39 -28 46 34 -40 35 -47 0
3 -15 4 -22 -5 29 -6 36 12 -30 14 -44 20 -38 -21 45 27 -39 -28 46 34 -40 35 -47 0
-3 15 4 -22 -5 29 -6 36 12 -30 14 -44 20 -38 -21 45 27 -39 -28 46 34 -40 35 -47 0
-3 -15 -4 -22 5 -29 6 -36 -12 30 14 -44 20 -38 -21 45 27 -39 -28 46 34 -40 35 -47 0
3 -15 -4 -22 5 -29 6 -36 -12 30 14 -44 20 -38 -21 45 27 -39 -28 46 34 -40 35 -47 0
-3 15 -4 -22 5 -29 6 -36 -12 30 14 -44 20 -38 -21 45 27 -39 -28 46 34 -40 35 -47 0
-3 -15 -4 22 5 -29 6 -36 -12 30 14 -44 20 -38 -21 45 27 -39 -28 46 34 -40 35 -47 0
3 -15 -4 22 5 -29 6 -36 -12 30 14 -44 20 -38 -21 45 27 -39 -28 46 34 -40 35 -47 0
-3 15 -4 22 5 -29 6 -36 -12 30 14 -44 20 -38 -21 45 27 -39 -28 46 34 -40 35 -47 0
-3 -15 4 -22 5 -29 6 -36 -12 30 14 -44 20 -38 -21 45 27 -39 -28 46 34 -40 35 -47 0
3 -15 4 -22 5 -29 6 -36 -12 30 14 -44 20 -38 -21 45 27 -39 -28 46 34 -40 35 -47 0
-3 15 4 -22 5 -29 6 -36 -12 30 14 -44 20 -38 -21 45 27 -39 -28 46 34 -40 35 -47 0
-3 -15 -4 -22 -5 29 6 -36 -12 30 14 -44 20 -38 -21 45 27 -39 -28 46 34 -40 35 -47 0
3 -15 -4 -22 -5 29 6 -36 -12 30 14 -44 20 -38 -21 45 27 -39 -28 46 34 -40 35 -47 0
-3 15 -4 -22 -5 29 6 -36 -12 30 14 -44 20 -38 -21 45 27 -39 -28 46 34 -40 35 -47 0
-3 -15 -4 22 -5 29 6 -36 -12 30 14 -44 20 -38 -21 45 27 -39 -28 46 34 -40 35 -47 0
3 -15 -4 22 -5 29 6 -36 -12 30 14 -44 20 -38 -21 45 27 -39 -28 46 34 -40 35 -47 0
-3 15 -4 22 -5 29 6 -36 -12 30 14 -44 20 -38 -21 45 27 -39 -28 46 34 -40 35 -47 0
-3 -15 4 -22 -5 29 6 -36 -12 30 14 -44 20 -38 -21 45 27 -39 -28 46 34 -40 35 -47 0
3 -15 4 -22 -5 29 6 -36 -12 30 14 -44 20 -38 -21 45 27 -39 -28 46 34 -40 35 -47 0
-3 15 4 -22 -5 29 6 -36 -12 30 14 -44 20 -38 -21 45 27 -39 -28 46 34 -40 35 -47 0
-3 -15 -4 -22 5 -29 -6 36 -12 30 14 -44 20 -38 -21 45 27 -39 -28 46 34 -40 35 -47 0
3 -15 -4 -22 5 -29 -6 36 -12 30 14 -44 20 -38 -21 45 27 -39 -28 46 34 -40 35 -47 0
-3 15 -4 -22 5 -29 -6 36 -12 30 14 -44 20 -38 -21 45 27 -39 -28 46 34 -40 35 -47 0
-3 -15 -4 22 5 -29 -6 36 -12 30 14 -44 20 -38 -21 45 27 -39 -28 46 34 -40 35 -47 0
3 -15 -4 22 5 -29 -6 36 -12 30 14 -44 20 -38 -21 45 27 -39 -28 46 34 -40 35 -47 0
-3 15 -4 22 5 -29 -6 36 -12 30 14 -44 20 -38 -21 45 27 -39 -28 46 34 -40 35 -47 0
-3 -15 4 -22 5 -29 -6 36 -12 30 14 -44 20 -38 -21 45 27 -39 -28 46 34 -40 35 -47 0
3 -15 4 -22 5 -29 -6 36 -12 30 14 -44 20 -38 -21 45 27 -39 -28 46 34 -40 35 -47 0
-3 15 4 -22 5 -29 -6 36 -12 30 14 -44 20 -38 -21 45 27 -39 -28 46 34 -40 35 -47 0
-3 -15 -4 -22 -5 29 -6 36 -12 30 14 -44 20 -38 -21 45 27 -39 -28 46 34 -40 35 -47 0
3 -15 -4 -22 -5 29 -6 36 -12 30 14 -44 20 -38 -21 45 27 -39 -28 46 34 -40 35 -47 0
-3 15 -4 -22 -5 29 -6 36 -12 30 14 -44 20 -38 -21 45 27 -39 -28 46 34 -40 35 -47 0
-3 -15 -4 22 -5 29 -6 36 -12 30 14 -44 20 -38 -21 45 27 -39 -28 46 34 -40 35 -47 0
3 -15 -4 22 -5 29 -6 36 -12 30 14 -44 20 -38 -21 45 27 -39 -28 46 34 -40 35 -47 0
-3 15 -4 22 -5 29 -6 36 -12 30 14 -44 20 -38 -21 45 27 -39 -28 46 34 -40 35 -47 0
-3 -15 4 -22 -5 29 -6 36 -12 30 14 -44 20 -38 -21 45 27 -39 -28 46 34 -40 35 -47 0
3 -15 4 -22 -5 29 -6 36 -12 30 14 -44 20 -38 -21 45 27 -39 -28 46 34 -40 35 -47 0
-3 15 4 -22 -5 29 -6 36 -12 30 14 -44 20 -38 -21 45 27 -39 -28 46 34 -40 35 -47 0
-3 15 -4 -22 5 -29 -6 36 -12 30 -14 44 -20 38 -21 45 -27 39 28 -46 34 -40 -35 47 0
-3 15 -4 -22 5 -29 -6 36 -12 30 -14 44 -20 38 -21 45 27 -39 28 -46 34 -40 -35 47 0
-3 15 -4 -22 5 -29 -6 36 -12 30 -14 44 -20 38 -21 45 27 -39 -28 46 34 -40 -35 47 0
-3 15 -4 -22 5 -29 -6 36 12 -30 -14 44 -20 38 -21 -45 -27 39 28 -46 34 -40 35 -47 0
-3 15 -4 -22 5 -29 -6 36 12 -30 -14 44 -20 38 -21 45 -27 39 28 -46 34 -40 -35 47 0
3 -15 -4 -22 5 -29 -6 36 12 -30 -14 44 -20 38 -21 45 -27 39 28 -46 -34 40 35 -47 0
3 -15 -4 -22 -5 -29 -6 36 12 -30 -14 44 -20 38 -21 45 -27 39 -28 46 34 -40 35 -47 0
-3 15 -4 -22 5 -29 -6 36 12 -30 -14 44 -20 38 -21 45 -27 39 28 -46 -34 40 35 -47 0
-3 15 -4 -22 5 -29 -6 36 12 -30 -14 44 -20 38 -21 45 -27 39 -28 46 -34 40 35 -47 0
3 -15 -4 -22 5 -29 -6 36 12 -30 14 -44 -20 38 -21 45 -27 39 28 -46 -34 40 35 -47 0
3 -15 -4 -22 5 -29 -6 36 -12 30 14 -44 -20 38 -21 45 -27 39 28 -46 -34 40 35 -47 0
3 -15 -4 -22 5 -29 6 -36 -12 30 14 -44 -20 38 -21 45 -27 39 28 -46 -34 40 35 -47 0
-3 15 -4 -22 5 -29 -6 36 12 -30 -14 44 -20 38 -21 45 -27 39 28 -46 -34 -40 35 -47 0
-3 15 -4 -22 5 -29 6 -36 12 -30 14 -44 -20 38 -21 45 27 -39 -28 46 34 -40 35 -47 0
-3 15 -4 -22 5 -29 -6 36 12 -30 14 -44 -20 38 -21 45 27 -39 -28 46 34 -40 35 -47 0
3 -15 -4 -22 5 -29 6 -36 12 -30 14 -44 -20 38 -21 45 27 -39 -28 46 34 -40 35 -47 0
-3 -15 -4 -22 5 -29 6 -36 12 -30 14 -44 -20 38 -21 45 27 -39 -28 46 34 -40 35 -47 0
-3 15 -4 -22 5 -29 6 -36 -12 30 14 -44 -20 38 -21 45 27 -39 -28 46 34 -40 35 -47 0
3 -15 -4 -22 5 -29 6 -36 -12 30 14 -44 -20 38 -21 45 27 -39 -28 46 34 -40 35 -47 0
-3 -15 -4 -22 5 -29 6 -36 -12 30 14 -44 -20 38 -21 45 27 -39 -28 46 34 -40 35 -47 0
3 -15 -4 -22 5 -29 -6 36 12 -30 14 -44 -20 38 -21 45 27 -39 -28 46 34 -40 35 -47 0
-3 15 -4 -22 5 -29 6 -36 -12 30 14 -44 20 -38 -21 45 -27 39 -28 46 -34 40 35 -47 0
-3 15 -4 -22 5 -29 -6 -36 -12 30 14 -44 20 -38 -21 45 -27 39 -28 46 34 -40 35 -47 0
-3 15 -4 -22 5 -29 6 -36 12 -30 14 -44 20 -38 -21 45 -27 39 -28 46 -34 40 35 -47 0
-3 15 -4 -22 5 -29 6 -36 12 -30 14 -44 20 -38 -21 45 -27 39 -28 46 -34 40 -35 47 0
-3 15 4 -22 5 -29 -6 36 12 -30 -14 44 -20 38 -21 45 -27 39 28 -46 -34 -40 35 -47 0
-3 15 4 -22 5 -29 -6 36 12 -30 -14 44 -20 38 -21 45 -27 39 -28 -46 -34 -40 35 -47 0
-3 15 4 -22 5 -29 -6 36 12 -30 -14 44 -20 38 -21 45 -27 -39 28 -46 -34 -40 35 -47 0
-3 -15 -4 -22 5 -29 -6 36 12 -30 14 -44 -20 38 -21 45 27 -39 -28 46 34 -40 35 -47 0
3 -15 -4 -22 5 -29 -6 36 12 -30 14 -44 -20 38 -21 45 -27 39 -28 46 -34 40 35 -47 0
-3 15 4 -22 5 -29 -6 36 12 -30 -14 44 -20 38 -21 45 -27 -39 -28 -46 -34 -40 35 -47 0
-3 -15 4 -22 5 -29 -6 36 12 -30 -14 44 -20 38 -21 45 -27 39 28 -46 -34 -40 35 -47 0
-3 15 -4 -22 5 -29 -6 36 12 -30 14 -44 -20 38 -21 45 -27 39 -28 46 -34 40 35 -47 0
-3 -15 -4 -22 5 -29 -6 36 12 -30 14 -44 -20 38 -21 45 -27 39 -28 46 -34 40 35 -47 0
-3 -15 -4 -22 5 -29 -6 36 12 -30 14 -44 -20 38 -21 45 27 -39 -28 46 -34 40 35 -47 0
-3 15 -4 -22 5 -29 -6 36 12 -30 14 -44 -20 38 -21 45 27 -39 -28 46 -34 40 35 -47 0
3 -15 -4 -22 5 -29 -6 36 12 -30 14 -44 -20 38 -21 45 27 -39 -28 46 -34 40 35 -47 0
-3 15 -4 -22 5 -29 -6 36 -12 -30 -14 44 -20 38 -21 45 -27 39 28 -46 -34 -40 35 -47 0
3 -15 4 -22 5 -29 -6 36 12 -30 -14 44 -20 38 -21 45 -27 39 28 -46 -34 -40 35 -47 0
-3 -15 4 -22 5 -29 -6 36 12 -30 -14 44 -20 38 -21 45 -27 39 -28 -46 -34 -40 35 -47 0
-3 15 -4 -22 5 -29 -6 36 -12 30 -14 44 -20 38 -21 45 -27 39 28 -46 -34 -40 35 -47 0
-3 15 -4 -22 5 -29 -6 -36 12 -30 -14 44 -20 38 -21 45 -27 39 28 -46 -34 -40 35 -47 0
3 -15 4 -22 5 -29 -6 36 12 -30 -14 44 -20 38 -21 45 -27 39 -28 -46 -34 -40 35 -47 0
-3 -15 4 -22 5 -29 -6 36 12 -30 -14 44 -20 38 -21 45 -27 -39 28 -46 -34 -40 35 -47 0
-3 15 -4 -22 5 -29 6 -36 12 -30 -14 44 -20 38 -21 45 -27 39 28 -46 -34 -40 35 -47 0
-3 15 -4 -22 5 -29 -6 -36 -12 -30 -14 44 -20 38 -21 45 -27 39 28 -46 -34 -40 35 -47 0
-3 15 -4 -22 5 -29 6 -36 -12 -30 -14 44 -20 38 -21 45 -27 39 28 -46 -34 -40 35 -47 0
3 -15 4 -22 5 -29 -6 36 12 -30 -14 44 -20 38 -21 45 -27 -39 28 -46 -34 -40 35 -47 0
-3 -15 4 -22 5 -29 -6 36 12 -30 -14 44 -20 38 -21 45 -27 -39 -28 -46 -34 -40 35 -47 0
-3 15 -4 -22 5 -29 -6 -36 -12 30 -14 44 -20 38 -21 45 -27 39 28 -46 -34 -40 35 -47 0
-3 15 -4 -22 5 -29 6 -36 -12 30 -14 44 -20 38 -21 45 -27 39 28 -46 -34 -40 35 -47 0
3 -15 4 -22 5 -29 -6 36 12 -30 -14 44 -20 38 -21 45 -27 -39 -28 -46 -34 -40 35 -47 0
-3 -15 4 -22 5 -29 -6 36 12 -30 -14 44 -20 -38 -21 45 -27 -39 28 -46 -34 -40 35 -47 0
-3 15 -4 -22 5 -29 -6 36 -12 -30 -14 44 -20 38 -21 45 -27 39 28 -46 34 -40 35 -47 0
-3 15 -4 -22 5 -29 -6 -36 12 -30 -14 44 -20 38 -21 45 -27 39 28 -46 34 -40 35 -47 0
3 -15 4 -22 5 -29 -6 36 12 -30 -14 44 -20 -38 -21 45 -27 -39 28 -46 -34 -40 35 -47 0
3 -15 4 -22 5 -29 -6 36 12 -30 -14 44 -20 -38 -21 45 -27 -39 -28 -46 -34 -40 35 -47 0
-3 -15 4 -22 5 -29 -6 36 12 -30 -14 44 -20 -38 -21 45 -27 39 28 -46 -34 -40 35 -47 0
3 -15 4 -22 5 -29 -6 36 12 -30 -14 44 -20 -38 -21 45 -27 39 28 -46 -34 -40 35 -47 0
-3 -15 4 -22 5 -29 -6 36 12 -30 -14 44 -20 -38 -21 45 -27 39 -28 -46 -34 -40 35 -47 0
-3 15 -4 -22 5 -29 -6 -36 -12 -30 -14 44 -20 38 -21 45 -27 39 28 -46 34 -40 35 -47 0
-3 15 -4 -22 5 -29 6 -36 -12 -30 -14 44 -20 38 -21 45 -27 39 28 -46 34 -40 35 -47 0
-3 15 -4 -22 5 -29 -6 -36 -12 30 -14 44 -20 38 -21 45 -27 39 28 -46 34 -40 35 -47 0
3 -15 4 -22 5 -29 -6 36 12 -30 -14 44 -20 -38 -21 45 -27 39 -28 -46 -34 -40 35 -47 0
-3 15 4 -22 5 -29 -6 36 12 -30 -14 44 -20 -38 -21 45 -27 -39 28 -46 -34 -40 35 -47 0
-3 15 4 -22 5 -29 -6 36 12 -30 -14 44 -20 -38 -21 45 -27 -39 -28 -46 -34 -40 35 -47 0
-3 15 4 -22 5 -29 -6 36 12 -30 -14 44 -20 -38 -21 45 -27 39 28 -46 -34 -40 35 -47 0
-3 15 -4 -22 5 -29 -6 36 12 -30 -14 -44 -20 38 -21 45 -27 39 28 -46 -34 -40 35 -47 0
-3 15 4 -22 5 -29 -6 36 12 -30 -14 44 -20 -38 -21 45 -27 39 -28 -46 -34 -40 35 -47 0
-3 15 -4 -22 5 -29 -6 36 -12 -30 -14 -44 -20 38 -21 45 -27 39 28 -46 -34 -40 35 -47 0
-3 -15 4 -22 5 -29 -6 36 12 -30 -14 44 -20 -38 -21 45 27 -39 28 -46 -34 -40 35 -47 0
-3 15 -4 -22 5 -29 -6 36 -12 30 -14 -44 -20 38 -21 45 -27 39 28 -46 -34 -40 35 -47 0
-3 15 -4 -22 5 -29 -6 -36 12 -30 -14 -44 -20 38 -21 45 -27 39 28 -46 -34 -40 35 -47 0
-3 15 -4 -22 5 -29 6 -36 12 -30 -14 -44 -20 38 -21 45 -27 39 28 -46 -34 -40 35 -47 0
3 -15 4 -22 5 -29 -6 36 12 -30 -14 44 -20 -38 -21 45 27 -39 28 -46 -34 -40 35 -47 0
-3 -15 4 -22 5 -29 -6 36 12 -30 -14 44 -20 -38 -21 45 27 -39 -28 -46 -34 -40 35 -47 0
-3 15 -4 -22 5 -29 6 -36 -12 -30 -14 -44 -20 38 -21 45 -27 39 28 -46 -34 -40 35 -47 0
-3 15 -4 -22 5 -29 -6 -36 -12 30 -14 -44 -20 38 -21 45 -27 39 28 -46 -34 -40 35 -47 0
3 -15 4 -22 5 -29 -6 36 12 -30 -14 44 -20 -38 -21 45 27 -39 -28 -46 -34 -40 35 -47 0
-3 15 4 -22 5 -29 -6 36 12 -30 -14 44 -20 -38 -21 45 27 -39 28 -46 -34 -40 35 -47 0
-3 15 4 -22 5 -29 -6 36 12 -30 -14 44 -20 -38 -21 45 27 -39 -28 -46 -34 -40 35 -47 0
-3 -15 4 -22 5 -29 -6 36 12 -30 -14 44 -20 38 -21 45 27 -39 28 -46 -34 -40 35 -47 0
-3 15 -4 -22 5 -29 6 -36 -12 30 -14 -44 -20 38 -21 45 -27 39 28 -46 -34 -40 35 -47 0
-3 15 -4 -22 5 -29 -6 36 12 -30 -14 -44 -20 38 -21 45 -27 39 28 -46 34 -40 35 -47 0
-3 15 -4 -22 5 -29 -6 36 -12 -30 -14 -44 -20 38 -21 45 -27 39 28 -46 34 -40 35 -47 0
-3 15 -4 -22 5 -29 -6 36 -12 30 -14 -44 -20 38 -21 45 -27 39 28 -46 34 -40 35 -47 0
3 -15 4 -22 5 -29 -6 36 12 -30 -14 44 -20 38 -21 45 27 -39 28 -46 -34 -40 35 -47 0
-3 -15 4 -22 5 -29 -6 36 12 -30 -14 44 -20 38 -21 45 27 -39 -28 -46 -34 -40 35 -47 0
-3 15 -4 -22 5 -29 -6 -36 12 -30 -14 -44 -20 38 -21 45 -27 39 28 -46 34 -40 35 -47 0
-3 15 -4 -22 5 -29 6 -36 12 -30 -14 -44 -20 38 -21 45 -27 39 28 -46 34 -40 35 -47 0
-3 15 -4 -22 5 -29 -6 -36 -12 -30 -14 -44 -20 38 -21 45 -27 39 28 -46 34 -40 35 -47 0
-3 15 -4 -22 5 -29 6 -36 -12 -30 -14 -44 -20 38 -21 45 -27 39 28 -46 34 -40 35 -47 0
-3 15 -4 -22 5 -29 -6 -36 -12 30 -14 -44 -20 38 -21 45 -27 39 28 -46 34 -40 35 -47 0
3 -15 4 -22 5 -29 -6 36 12 -30 -14 44 -20 38 -21 45 27 -39 -28 -46 -34 -40 35 -47 0
-3 15 4 -22 5 -29 -6 36 12 -30 -14 44 -20 38 -21 45 27 -39 28 -46 -34 -40 35 -47 0
-3 15 4 -22 5 -29 -6 36 12 -30 -14 44 -20 38 -21 45 27 -39 -28 -46 -34 -40 35 -47 0
3 -15 4 -22 5 -29 -6 36 12 -30 -14 44 -20 -38 -21 45 -27 -39 28 -46 -34 -40 -35 -47 0
-3 15 4 -22 5 -29 -6 36 12 -30 -14 44 -20 -38 -21 45 -27 -39 28 -46 -34 -40 -35 -47 0
-3 -15 4 -22 5 -29 -6 36 12 -30 -14 44 -20 -38 -21 45 -27 39 28 -46 -34 -40 -35 -47 0
-3 15 -4 -22 5 -29 6 -36 -12 30 -14 -44 -20 38 -21 45 -27 39 28 -46 34 -40 35 -47 0
-3 15 -4 -22 5 -29 -6 36 12 -30 -14 -44 -20 38 -21 45 -27 39 28 -46 -34 -40 -35 -47 0
3 -15 4 -22 5 -29 -6 36 12 -30 -14 44 -20 -38 -21 45 -27 39 28 -46 -34 -40 -35 -47 0
3 -15 4 -22 5 -29 -6 36 12 -30 -14 44 -20 -38 -21 45 -27 39 -28 -46 -34 -40 -35 -47 0
-3 15 4 -22 5 -29 -6 36 12 -30 -14 44 -20 -38 -21 45 -27 39 28 -46 -34 -40 -35 -47 0
-3 15 4 -22 5 -29 -6 36 12 -30 -14 44 -20 -38 -21 45 -27 39 -28 -46 -34 -40 -35 -47 0
-3 -15 4 -22 5 -29 -6 36 12 -30 -14 44 -20 38 -21 45 -27 -39 28 -46 -34 -40 -35 -47 0
-3 15 -4 -22 5 -29 -6 36 -12 30 -14 -44 -20 38 -21 45 -27 39 28 -46 -34 -40 -35 -47 0
-3 15 -4 -22 5 -29 -6 36 12 -30 -14 -44 -20 38 -21 45 -27 39 28 -46 -34 -40 -35 47 0
3 -15 4 -22 5 -29 -6 36 12 -30 -14 44 -20 38 -21 45 -27 -39 28 -46 -34 -40 -35 -47 0
3 -15 4 -22 5 -29 -6 36 12 -30 -14 44 -20 38 -21 45 -27 -39 -28 -46 -34 -40 -35 -47 0
-3 15 4 -22 5 -29 -6 36 12 -30 -14 44 -20 38 -21 45 -27 -39 28 -46 -34 -40 -35 -47 0
-3 15 4 -22 5 -29 -6 36 12 -30 -14 44 -20 38 -21 45 -27 -39 -28 -46 -34 -40 -35 -47 0
-3 -15 4 -22 5 -29 -6 36 12 -30 -14 44 -20 38 -21 45 -27 39 28 -46 -34 -40 -35 -47 0
-3 15 -4 -22 5 -29 -6 36 -12 -30 -14 -44 -20 38 -21 45 -27 39 28 -46 -34 -40 -35 47 0
-3 15 -4 -22 5 -29 -6 36 -12 30 -14 -44 -20 38 -21 45 -27 39 28 -46 -34 -40 -35 47 0
-3 -15 4 -22 5 -29 -6 36 12 -30 -14 44 -20 38 -21 45 -27 39 -28 -46 -34 -40 -35 -47 0
-3 15 -4 -22 5 -29 -6 36 12 -30 -14 44 -20 38 -21 45 -27 39 28 -46 -34 -40 -35 -47 0
-3 15 -4 -22 5 -29 -6 36 -12 -30 -14 44 -20 38 -21 45 -27 39 28 -46 -34 -40 -35 -47 0
-3 15 -4 -22 5 -29 -6 36 -12 30 -14 44 -20 38 -21 45 -27 39 28 -46 -34 -40 -35 -47 0
-3 15 -4 -22 5 -29 -6 36 12 -30 -14 44 -20 38 -21 45 -27 39 28 -46 -34 -40 -35 47 0
3 -15 4 -22 5 -29 -6 36 12 -30 -14 44 -20 38 -21 45 -27 39 28 -46 -34 -40 -35 -47 0
3 -15 4 -22 5 -29 -6 36 12 -30 -14 44 -20 38 -21 45 -27 39 -28 -46 -34 -40 -35 -47 0
-3 15 4 -22 5 -29 -6 36 12 -30 -14 44 -20 38 -21 45 -27 39 28 -46 -34 -40 -35 -47 0
-3 15 4 -22 5 -29 -6 36 12 -30 -14 44 -20 38 -21 45 -27 39 -28 -46 -34 -40 -35 -47 0
-3 -15 4 -22 5 -29 -6 36 12 -30 -14 44 -20 -38 -21 45 -27 -39 28 -46 -34 -40 -35 47 0
-3 15 -4 -22 5 -29 -6 36 -12 -30 -14 44 -20 38 -21 45 -27 39 28 -46 -34 -40 -35 47 0
3 -15 4 -22 5 -29 -6 36 12 -30 -14 44 -20 -38 -21 45 -27 -39 28 -46 -34 -40 -35 47 0
3 -15 4 -22 5 -29 -6 36 12 -30 -14 44 -20 -38 -21 45 -27 -39 -28 -46 -34 -40 -35 47 0
-3 15 4 -22 5 -29 -6 36 12 -30 -14 44 -20 -38 -21 45 -27 -39 28 -46 -34 -40 -35 47 0
-3 15 4 -22 5 -29 -6 36 12 -30 -14 44 -20 -38 -21 45 -27 -39 -28 -46 -34 -40 -35 47 0
-3 -15 4 -22 5 -29 -6 36 12 -30 -14 44 -20 -38 -21 45 -27 39 28 -46 -34 -40 -35 47 0
-3 15 -4 -22 5 -29 -6 36 -12 30 -14 44 -20 38 -21 45 -27 39 28 -46 -34 -40 -35 47 0
-3 -15 4 -22 5 -29 -6 36 12 -30 -14 44 -20 -38 -21 45 -27 39 -28 -46 -34 -40 -35 47 0
-3 15 -4 -22 5 -29 6 -36 12 -30 -14 -44 -20 38 -21 45 -27 39 28 -46 -34 -40 -35 -47 0
-3 15 -4 -22 5 -29 6 -36 -12 30 -14 -44 -20 38 -21 45 -27 39 28 -46 -34 -40 -35 -47 0
-3 15 -4 -22 5 -29 -6 -36 12 -30 -14 -44 -20 38 -21 45 -27 39 28 -46 -34 -40 -35 47 0
-3 15 -4 -22 5 -29 6 -36 12 -30 -14 -44 -20 38 -21 45 -27 39 28 -46 -34 -40 -35 47 0
-3 15 -4 -22 5 -29 -6 -36 -12 30 -14 -44 -20 38 -21 45 -27 39 28 -46 -34 -40 -35 47 0
3 -15 4 -22 5 -29 -6 36 12 -30 -14 44 -20 -38 -21 45 -27 39 28 -46 -34 -40 -35 47 0
3 -15 4 -22 5 -29 -6 36 12 -30 -14 44 -20 -38 -21 45 -27 39 -28 -46 -34 -40 -35 47 0
-3 15 4 -22 5 -29 -6 36 12 -30 -14 44 -20 -38 -21 45 -27 39 28 -46 -34 -40 -35 47 0
-3 15 4 -22 5 -29 -6 36 12 -30 -14 44 -20 -38 -21 45 -27 39 -28 -46 -34 -40 -35 47 0
-3 -15 4 -22 5 -29 -6 36 12 -30 -14 44 -20 38 -21 45 -27 -39 28 -46 -34 -40 -35 47 0
-3 15 -4 -22 5 -29 6 -36 -12 -30 -14 -44 -20 38 -21 45 -27 39 28 -46 -34 -40 -35 47 0
-3 15 -4 -22 5 -29 6 -36 -12 30 -14 -44 -20 38 -21 45 -27 39 28 -46 -34 -40 -35 47 0
-3 15 -4 -22 5 -29 -6 -36 12 -30 -14 44 -20 38 -21 45 -27 39 28 -46 -34 -40 -35 -47 0
-3 -15 4 -22 5 -29 -6 36 12 -30 -14 44 -20 38 -21 45 -27 -39 -28 -46 -34 -40 -35 47 0
-3 15 -4 -22 5 -29 6 -36 12 -30 -14 44 -20 38 -21 45 -27 39 28 -46 -34 -40 -35 -47 0
-3 15 -4 -22 5 -29 -6 -36 -12 30 -14 44 -20 38 -21 45 -27 39 28 -46 -34 -40 -35 -47 0
-3 15 -4 -22 5 -29 6 -36 -12 -30 -14 44 -20 38 -21 45 -27 39 28 -46 -34 -40 -35 -47 0
-3 15 -4 -22 5 -29 6 -36 -12 30 -14 44 -20 38 -21 45 -27 39 28 -46 -34 -40 -35 -47 0
3 -15 4 -22 5 -29 -6 36 12 -30 -14 44 -20 38 -21 45 -27 -39 28 -46 -34 -40 -35 47 0
3 -15 4 -22 5 -29 -6 36 12 -30 -14 44 -20 38 -21 45 -27 -39 -28 -46 -34 -40 -35 47 0
-3 15 4 -22 5 -29 -6 36 12 -30 -14 44 -20 38 -21 45 -27 -39 28 -46 -34 -40 -35 47 0
-3 15 4 -22 5 -29 -6 36 12 -30 -14 44 -20 38 -21 45 -27 -39 -28 -46 -34 -40 -35 47 0
-3 -15 4 -22 5 -29 -6 36 12 -30 -14 44 -20 38 -21 45 -27 39 28 -46 -34 -40 -35 47 0
-3 15 -4 -22 5 -29 -6 -36 12 -30 -14 44 -20 38 -21 45 -27 39 28 -46 -34 -40 -35 47 0
-3 -15 4 -22 5 -29 -6 36 12 -30 -14 44 -20 38 -21 45 -27 39 -28 -46 -34 -40 -35 47 0
-3 15 -4 -22 5 -29 6 -36 12 -30 -14 44 -20 38 -21 45 -27 39 28 -46 -34 -40 -35 47 0
-3 15 -4 -22 5 -29 -6 -36 -12 -30 -14 44 -20 38 -21 45 -27 39 28 -46 -34 -40 -35 47 0
-3 15 -4 -22 5 -29 6 -36 -12 -30 -14 44 -20 38 -21 45 -27 39 28 -46 -34 -40 -35 47 0
-3 15 -4 -22 5 -29 -6 -36 -12 30 -14 44 -20 38 -21 45 -27 39 28 -46 -34 -40 -35 47 0
3 -15 4 -22 5 -29 -6 36 12 -30 -14 44 -20 38 -21 45 -27 39 28 -46 -34 -40 -35 47 0
3 -15 4 -22 5 -29 -6 36 12 -30 -14 44 -20 38 -21 45 -27 39 -28 -46 -34 -40 -35 47 0
-3 15 4 -22 5 -29 -6 36 12 -30 -14 44 -20 38 -21 45 -27 39 28 -46 -34 -40 -35 47 0
-3 15 4 -22 5 -29 -6 36 12 -30 -14 44 -20 38 -21 45 -27 39 -28 -46 -34 -40 -35 47 0
-3 -15 4 -22 5 -29 -6 36 12 -30 -14 44 -20 -38 -21 45 27 -39 28 -46 -34 -40 -35 -47 0
-3 15 -4 -22 5 -29 6 -36 -12 30 -14 44 -20 38 -21 45 -27 39 28 -46 -34 -40 -35 47 0
-3 15 -4 -22 5 -29 -6 36 12 -30 -14 -44 -20 38 -21 45 -27 39 28 -46 34 -40 -35 -47 0
-3 15 -4 -22 5 -29 -6 36 -12 -30 -14 -44 -20 38 -21 45 -27 39 28 -46 34 -40 -35 -47 0
3 -15 4 -22 5 -29 -6 36 12 -30 -14 44 -20 -38 -21 45 27 -39 28 -46 -34 -40 -35 -47 0
3 -15 4 -22 5 -29 -6 36 12 -30 -14 44 -20 -38 -21 45 27 -39 -28 -46 -34 -40 -35 -47 0
-3 15 4 -22 5 -29 -6 36 12 -30 -14 44 -20 -38 -21 45 27 -39 28 -46 -34 -40 -35 -47 0
-3 15 4 -22 5 -29 -6 36 12 -30 -14 44 -20 -38 -21 45 27 -39 -28 -46 -34 -40 -35 -47 0
-3 -15 4 -22 5 -29 -6 36 12 -30 -14 44 -20 38 -21 45 27 -39 28 -46 -34 -40 -35 -47 0
-3 15 -4 -22 5 -29 -6 36 -12 30 -14 -44 -20 38 -21 45 -27 39 28 -46 34 -40 -35 -47 0
-3 15 -4 -22 5 -29 -6 36 12 -30 -14 -44 -20 38 -21 45 -27 39 28 -46 34 -40 -35 47 0
-3 -15 4 -22 5 -29 -6 36 12 -30 -14 44 -20 38 -21 45 27 -39 -28 -46 -34 -40 -35 -47 0
-3 15 -4 -22 5 -29 -6 36 -12 -30 -14 -44 -20 38 -21 45 -27 39 28 -46 34 -40 -35 47 0
-3 15 -4 -22 5 -29 -6 36 -12 30 -14 -44 -20 38 -21 45 -27 39 28 -46 34 -40 -35 47 0
3 -15 4 -22 5 -29 -6 36 12 -30 -14 44 -20 38 -21 45 27 -39 28 -46 -34 -40 -35 -47 0
3 -15 4 -22 5 -29 -6 36 12 -30 -14 44 -20 38 -21 45 27 -39 -28 -46 -34 -40 -35 -47 0
-3 15 4 -22 5 -29 -6 36 12 -30 -14 44 -20 38 -21 45 27 -39 28 -46 -34 -40 -35 -47 0
-3 15 4 -22 5 -29 -6 36 12 -30 -14 44 -20 38 -21 45 27 -39 -28 -46 -34 -40 -35 -47 0
-3 -15 4 -22 5 -29 -6 36 12 -30 -14 44 -20 -38 -21 45 27 -39 28 -46 -34 -40 -35 47 0
-3 15 -4 -22 5 -29 -6 36 12 -30 -14 44 -20 38 -21 45 -27 39 28 -46 34 -40 -35 -47 0
-3 15 -4 -22 5 -29 -6 36 -12 -30 14 -44 -20 38 -21 45 -27 39 28 -46 34 -40 35 -47 0
-3 15 -4 -22 5 -29 -6 -36 12 -30 14 -44 -20 38 -21 45 -27 39 28 -46 34 -40 35 -47 0
-3 15 -4 -22 5 -29 -6 36 -12 -30 -14 44 -20 38 -21 45 -27 39 28 -46 34 -40 -35 -47 0
3 -15 -4 -22 5 -29 -6 36 12 -30 -14 44 -20 38 -21 45 27 -39 -28 46 34 -40 35 -47 0
3 -15 -4 -22 5 -29 -6 36 12 -30 -14 44 -20 38 -21 45 27 -39 28 -46 -34 40 35 -47 0
3 -15 -4 -22 5 -29 -6 36 12 -30 -14 44 -20 38 -21 45 27 -39 -28 46 -34 40 35 -47 0
-3 15 -4 -22 5 -29 -6 36 12 -30 -14 44 -20 38 -21 45 27 -39 28 -46 -34 40 35 -47 0
-3 -15 -4 -22 5 -29 -6 36 12 -30 -14 44 -20 38 -21 45 27 -39 28 -46 -34 40 35 -47 0
3 -15 4 -22 5 -29 -6 36 12 -30 -14 44 -20 38 -21 45 27 -39 28 -46 -34 40 35 -47 0
3 -15 -4 -22 5 -29 6 -36 12 -30 -14 44 -20 38 -21 45 27 -39 28 -46 -34 40 35 -47 0
-3 -15 4 -22 5 -29 -6 36 12 -30 -14 44 -20 -38 -21 45 27 -39 -28 -46 -34 -40 -35 47 0
3 -15 4 -22 5 -29 -6 36 12 -30 -14 44 -20 -38 -21 45 27 -39 28 -46 -34 -40 -35 47 0
3 -15 4 -22 5 -29 -6 36 12 -30 -14 44 -20 -38 -21 45 27 -39 -28 -46 -34 -40 -35 47 0
-3 15 4 -22 5 -29 -6 36 12 -30 -14 44 -20 -38 -21 45 27 -39 28 -46 -34 -40 -35 47 0
-3 15 4 -22 5 -29 -6 36 12 -30 -14 44 -20 -38 -21 45 27 -39 -28 -46 -34 -40 -35 47 0
-3 -15 4 -22 5 -29 -6 36 12 -30 -14 44 -20 38 -21 45 27 -39 28 -46 -34 -40 -35 47 0
-3 -15 4 -22 5 -29 -6 36 12 -30 -14 44 -20 38 -21 45 27 -39 -28 -46 -34 -40 -35 47 0
-3 15 -4 -22 5 -29 -6 36 -12 30 -14 44 -20 38 -21 45 -27 39 28 -46 34 -40 -35 -47 0
-3 15 -4 -22 5 -29 -6 36 -12 -30 -14 44 -20 38 -21 45 -27 39 28 -46 34 -40 -35 47 0
-3 15 -4 -22 5 -29 -6 -36 12 -30 -14 -44 -20 38 -21 45 -27 39 28 -46 34 -40 -35 -47 0
3 -15 4 -22 5 -29 -6 36 12 -30 -14 44 -20 38 -21 45 27 -39 28 -46 -34 -40 -35 47 0
3 -15 4 -22 5 -29 -6 36 12 -30 -14 44 -20 38 -21 45 27 -39 -28 -46 -34 -40 -35 47 0
-3 15 4 -22 5 -29 -6 36 12 -30 -14 44 -20 38 -21 45 27 -39 28 -46 -34 -40 -35 47 0
-3 15 4 -22 5 -29 -6 36 12 -30 -14 44 -20 38 -21 45 27 -39 -28 -46 -34 -40 -35 47 0
-3 -15 4 -22 5 -29 -6 36 12 -30 -14 44 20 -38 -21 45 -27 -39 28 -46 -34 -40 -35 -47 0
-3 15 -4 -22 5 -29 6 -36 12 -30 -14 -44 -20 38 -21 45 -27 39 28 -46 34 -40 -35 -47 0
-3 15 -4 -22 5 -29 -6 -36 -12 30 -14 -44 -20 38 -21 45 -27 39 28 -46 34 -40 -35 -47 0
3 -15 4 -22 5 -29 -6 36 12 -30 -14 44 20 -38 -21 45 -27 -39 28 -46 -34 -40 -35 -47 0
3 -15 4 -22 5 -29 -6 36 12 -30 -14 44 20 -38 -21 45 -27 -39 -28 -46 -34 -40 -35 -47 0
-3 15 4 -22 5 -29 -6 36 12 -30 -14 44 20 -38 -21 45 -27 -39 28 -46 -34 -40 -35 -47 0
-3 15 4 -22 5 -29 -6 36 12 -30 -14 44 20 -38 -21 45 -27 -39 -28 -46 -34 -40 -35 -47 0
-3 -15 4 -22 5 -29 -6 36 12 -30 -14 44 20 -38 -21 45 -27 39 28 -46 -34 -40 -35 -47 0
-3 15 -4 -22 5 -29 6 -36 -12 -30 -14 -44 -20 38 -21 45 -27 39 28 -46 34 -40 -35 -47 0
-3 15 -4 -22 5 -29 6 -36 -12 30 -14 -44 -20 38 -21 45 -27 39 28 -46 34 -40 -35 -47 0
-3 15 -4 -22 5 -29 -6 -36 12 -30 -14 44 -20 38 -21 45 -27 39 28 -46 34 -40 -35 -47 0
-3 -15 4 -22 5 -29 -6 36 12 -30 -14 44 20 -38 -21 45 -27 39 -28 -46 -34 -40 -35 -47 0
-3 15 -4 -22 5 -29 6 -36 12 -30 -14 44 -20 38 -21 45 -27 39 28 -46 34 -40 -35 -47 0
-3 15 -4 -22 5 -29 -6 -36 -12 -30 -14 44 -20 38 -21 45 -27 39 28 -46 34 -40 -35 -47 0
-3 15 -4 -22 5 -29 -6 -36 -12 30 -14 44 -20 38 -21 45 -27 39 28 -46 34 -40 -35 -47 0
-3 15 -4 -22 5 -29 6 -36 -12 -30 -14 44 -20 38 -21 45 -27 39 28 -46 34 -40 -35 -47 0
3 -15 4 -22 5 -29 -6 36 12 -30 -14 44 20 -38 -21 45 -27 39 28 -46 -34 -40 -35 -47 0
3 -15 4 -22 5 -29 -6 36 12 -30 -14 44 20 -38 -21 45 -27 39 -28 -46 -34 -40 -35 -47 0
-3 15 4 -22 5 -29 -6 36 12 -30 -14 44 20 -38 -21 45 -27 39 28 -46 -34 -40 -35 -47 0
-3 15 4 -22 5 -29 -6 36 12 -30 -14 44 20 -38 -21 45 -27 39 -28 -46 -34 -40 -35 -47 0
-3 -15 4 -22 5 -29 -6 36 12 -30 -14 44 20 -38 -21 45 -27 -39 28 -46 -34 -40 -35 47 0
-3 15 -4 -22 5 -29 6 -36 -12 30 -14 44 -20 38 -21 45 -27 39 28 -46 34 -40 -35 -47 0
-3 15 -4 -22 5 -29 -6 -36 12 -30 -14 -44 -20 38 -21 45 -27 39 28 -46 34 -40 -35 47 0
-3 15 -4 -22 5 -29 6 -36 12 -30 -14 -44 -20 38 -21 45 -27 39 28 -46 34 -40 -35 47 0
-3 -15 4 -22 5 -29 -6 36 12 -30 -14 44 20 -38 -21 45 -27 -39 -28 -46 -34 -40 -35 47 0
-3 15 -4 -22 5 -29 -6 -36 -12 -30 -14 -44 -20 38 -21 45 -27 39 28 -46 34 -40 -35 47 0
-3 15 -4 -22 5 -29 -6 -36 -12 30 -14 -44 -20 38 -21 45 -27 39 28 -46 34 -40 -35 47 0
3 -15 4 -22 5 -29 -6 36 12 -30 -14 44 20 -38 -21 45 -27 -39 28 -46 -34 -40 -35 47 0
3 -15 4 -22 5 -29 -6 36 12 -30 -14 44 20 -38 -21 45 -27 -39 -28 -46 -34 -40 -35 47 0
-3 15 4 -22 5 -29 -6 36 12 -30 -14 44 20 -38 -21 45 -27 -39 28 -46 -34 -40 -35 47 0
-3 15 4 -22 5 -29 -6 36 12 -30 -14 44 20 -38 -21 45 -27 -39 -28 -46 -34 -40 -35 47 0
-3 -15 4 -22 5 -29 -6 36 12 -30 -14 44 20 -38 -21 45 -27 39 28 -46 -34 -40 -35 47 0
-3 15 -4 -22 5 -29 6 -36 -12 -30 -14 -44 -20 38 -21 45 -27 39 28 -46 34 -40 -35 47 0
-3 15 -4 -22 5 -29 6 -36 -12 30 -14 -44 -20 38 -21 45 -27 39 28 -46 34 -40 -35 47 0
-3 15 -4 -22 5 -29 -6 -36 12 -30 -14 44 -20 38 -21 45 -27 39 28 -46 34 -40 -35 47 0
-3 -15 4 -22 5 -29 -6 36 12 -30 -14 44 20 -38 -21 45 -27 39 -28 -46 -34 -40 -35 47 0
-3 15 -4 -22 5 -29 6 -36 12 -30 -14 44 -20 38 -21 45 -27 39 28 -46 34 -40 -35 47 0
-3 15 -4 -22 5 -29 -6 -36 -12 -30 -14 44 -20 38 -21 45 -27 39 28 -46 34 -40 -35 47 0
-3 15 -4 -22 5 -29 -6 -36 -12 30 -14 44 -20 38 -21 45 -27 39 28 -46 34 -40 -35 47 0
-3 15 -4 -22 5 -29 6 -36 -12 -30 -14 44 -20 38 -21 45 -27 39 28 -46 34 -40 -35 47 0
-3 15 -4 -22 5 -29 6 -36 -12 30 -14 44 -20 38 -21 45 -27 39 28 -46 34 -40 -35 47 0
3 -15 4 -22 5 -29 -6 36 12 -30 -14 44 20 -38 -21 45 -27 39 28 -46 -34 -40 -35 47 0
3 -15 4 -22 5 -29 -6 36 12 -30 -14 44 20 -38 -21 45 -27 39 -28 -46 -34 -40 -35 47 0
-3 15 4 -22 5 -29 -6 36 12 -30 -14 44 20 -38 -21 45 -27 39 28 -46 -34 -40 -35 47 0
-3 15 4 -22 5 -29 -6 36 12 -30 -14 44 20 -38 -21 45 -27 39 -28 -46 -34 -40 -35 47 0
-3 -15 4 -22 5 -29 -6 36 12 -30 -14 44 20 -38 -21 45 -27 -39 28 -46 -34 -40 35 -47 0
-3 15 -4 -22 5 -29 -6 36 12 -30 -14 -44 -20 38 -21 45 -27 39 -28 46 -34 -40 -35 -47 0
-3 15 -4 -22 5 -29 -6 36 -12 30 -14 -44 -20 38 -21 45 -27 39 -28 46 -34 -40 -35 -47 0
-3 -15 4 -22 5 -29 -6 36 12 -30 -14 44 20 -38 -21 45 -27 -39 -28 -46 -34 -40 35 -47 0
-3 15 -4 -22 5 -29 -6 36 12 -30 -14 44 -20 38 -21 45 -27 39 -28 -46 -34 -40 -35 -47 0
-3 15 -4 -22 5 -29 -6 36 -12 30 -14 44 -20 38 -21 45 -27 39 -28 -46 -34 -40 -35 -47 0
-3 15 -4 -22 5 -29 -6 36 12 -30 -14 44 -20 38 -21 45 -27 39 -28 46 -34 -40 -35 -47 0
-3 15 -4 -22 5 -29 -6 36 -12 -30 -14 44 -20 38 -21 45 -27 39 -28 46 -34 -40 -35 -47 0
3 -15 4 -22 5 -29 -6 36 12 -30 -14 44 20 -38 -21 45 -27 -39 28 -46 -34 -40 35 -47 0
3 -15 4 -22 5 -29 -6 36 12 -30 -14 44 20 -38 -21 45 -27 -39 -28 -46 -34 -40 35 -47 0
-3 15 4 -22 5 -29 -6 36 12 -30 -14 44 20 -38 -21 45 -27 -39 28 -46 -34 -40 35 -47 0
-3 15 4 -22 5 -29 -6 36 12 -30 -14 44 20 -38 -21 45 -27 -39 -28 -46 -34 -40 35 -47 0
-3 -15 4 -22 5 -29 -6 36 12 -30 -14 44 20 -38 -21 45 -27 39 28 -46 -34 -40 35 -47 0
-3 15 -4 -22 5 -29 -6 36 -12 30 -14 44 -20 38 -21 45 -27 39 -28 46 -34 -40 -35 -47 0
-3 15 -4 -22 5 -29 -6 36 12 -30 -14 -44 -20 38 -21 45 -27 39 -28 -46 34 -40 -35 -47 0
-3 15 -4 -22 5 -29 -6 36 -12 30 -14 -44 -20 38 -21 45 -27 39 -28 -46 34 -40 -35 -47 0
-3 15 -4 -22 5 -29 -6 36 12 -30 -14 -44 -20 38 -21 45 -27 39 -28 46 34 -40 -35 -47 0
-3 -15 4 -22 5 -29 -6 36 12 -30 -14 44 20 -38 -21 45 -27 39 -28 -46 -34 -40 35 -47 0
-3 15 -4 -22 5 -29 -6 36 -12 -30 -14 -44 -20 38 -21 45 -27 39 -28 46 34 -40 -35 -47 0
-3 15 -4 -22 5 -29 -6 36 -12 30 -14 -44 -20 38 -21 45 -27 39 -28 46 34 -40 -35 -47 0
-3 15 -4 -22 5 -29 -6 36 12 -30 -14 44 -20 38 -21 45 -27 39 -28 -46 34 -40 -35 -47 0
3 -15 4 -22 5 -29 -6 36 12 -30 -14 44 20 -38 -21 45 -27 39 28 -46 -34 -40 35 -47 0
3 -15 4 -22 5 -29 -6 36 12 -30 -14 44 20 -38 -21 45 -27 39 -28 -46 -34 -40 35 -47 0
-3 15 4 -22 5 -29 -6 36 12 -30 -14 44 20 -38 -21 45 -27 39 28 -46 -34 -40 35 -47 0
-3 15 4 -22 5 -29 -6 36 12 -30 -14 44 20 -38 -21 45 -27 39 -28 -46 -34 -40 35 -47 0
-3 -15 4 -22 5 -29 -6 36 12 -30 -14 44 20 -38 -21 45 27 -39 28 -46 -34 -40 -35 -47 0
-3 15 -4 -22 5 -29 -6 36 -12 -30 -14 44 -20 38 -21 45 -27 39 -28 -46 34 -40 -35 -47 0
-3 15 -4 -22 5 -29 -6 36 -12 30 -14 44 -20 38 -21 45 -27 39 -28 -46 34 -40 -35 -47 0
-3 -15 4 -22 5 -29 -6 36 12 -30 -14 44 20 -38 -21 45 27 -39 -28 -46 -34 -40 -35 -47 0
-3 15 -4 -22 5 -29 -6 36 12 -30 -14 44 -20 38 -21 45 -27 39 -28 46 34 -40 -35 -47 0
-3 15 -4 -22 5 -29 -6 36 -12 -30 -14 44 -20 38 -21 45 -27 39 -28 46 34 -40 -35 -47 0
-3 15 -4 -22 5 -29 -6 36 -12 30 -14 44 -20 38 -21 45 -27 39 -28 46 34 -40 -35 -47 0
-3 15 -4 -22 5 -29 -6 36 12 -30 -14 -44 -20 38 -21 45 -27 39 -28 -46 -34 -40 -35 47 0
-3 15 -4 -22 5 -29 -6 36 -12 30 -14 -44 -20 38 -21 45 -27 39 -28 -46 -34 -40 -35 47 0
3 -15 4 -22 5 -29 -6 36 12 -30 -14 44 20 -38 -21 45 27 -39 28 -46 -34 -40 -35 -47 0
3 -15 4 -22 5 -29 -6 36 12 -30 -14 44 20 -38 -21 45 27 -39 -28 -46 -34 -40 -35 -47 0
-3 15 4 -22 5 -29 -6 36 12 -30 -14 44 20 -38 -21 45 27 -39 28 -46 -34 -40 -35 -47 0
-3 15 4 -22 5 -29 -6 36 12 -30 -14 44 20 -38 -21 45 27 -39 -28 -46 -34 -40 -35 -47 0
-3 -15 4 -22 5 -29 -6 36 12 -30 -14 44 20 -38 -21 45 27 -39 28 -46 -34 -40 -35 47 0
-3 15 -4 -22 5 -29 -6 36 12 -30 -14 -44 -20 38 -21 45 -27 39 -28 -46 34 -40 -35 47 0
-3 15 -4 -22 5 -29 -6 36 -12 -30 -14 -44 -20 38 -21 45 -27 39 -28 -46 34 -40 -35 47 0
-3 15 -4 -22 5 -29 -6 36 -12 30 -14 -44 -20 38 -21 45 -27 39 -28 -46 34 -40 -35 47 0
-3 -15 4 -22 5 -29 -6 36 12 -30 -14 44 20 -38 -21 45 27 -39 -28 -46 -34 -40 -35 47 0
-3 15 -4 -22 5 -29 -6 36 12 -30 -14 -44 -20 38 -21 45 -27 39 -28 46 -34 -40 -35 47 0
-3 15 -4 -22 5 -29 -6 36 -12 -30 -14 -44 -20 38 -21 45 -27 39 -28 46 -34 -40 -35 47 0
-3 15 -4 -22 5 -29 -6 36 -12 30 -14 -44 -20 38 -21 45 -27 39 -28 46 -34 -40 -35 47 0
-3 15 -4 -22 5 -29 -6 36 12 -30 -14 -44 -20 38 -21 45 -27 39 -28 46 34 -40 -35 47 0
3 -15 4 -22 5 -29 -6 36 12 -30 -14 44 20 -38 -21 45 27 -39 28 -46 -34 -40 -35 47 0
3 -15 4 -22 5 -29 -6 36 12 -30 -14 44 20 -38 -21 45 27 -39 -28 -46 -34 -40 -35 47 0
-3 15 4 -22 5 -29 -6 36 12 -30 -14 44 20 -38 -21 45 27 -39 28 -46 -34 -40 -35 47 0
-3 15 4 -22 5 -29 -6 36 12 -30 -14 44 20 -38 -21 45 27 -39 -28 -46 -34 -40 -35 47 0
-3 -15 4 -22 5 -29 -6 36 12 -30 -14 44 20 -38 -21 45 27 -39 28 -46 -34 -40 35 -47 0
-3 15 -4 -22 5 -29 -6 36 -12 -30 -14 -44 -20 38 -21 45 -27 39 -28 46 34 -40 -35 47 0
-3 15 -4 -22 5 -29 -6 36 -12 30 -14 -44 -20 38 -21 45 -27 39 -28 46 34 -40 -35 47 0
-3 15 -4 -22 5 -29 -6 36 12 -30 -14 44 -20 38 -21 45 -27 39 -28 -46 -34 -40 -35 47 0
-3 15 -4 -22 5 -29 -6 36 -12 -30 -14 44 -20 38 -21 45 -27 39 -28 -46 -34 -40 -35 47 0
-3 -15 4 -22 5 -29 -6 36 12 -30 -14 44 20 -38 -21 45 27 -39 -28 -46 -34 -40 35 -47 0
-3 15 -4 -22 5 -29 -6 36 -12 30 -14 44 -20 38 -21 45 -27 39 -28 -46 -34 -40 -35 47 0
-3 15 -4 -22 5 -29 -6 36 12 -30 -14 44 -20 38 -21 45 -27 39 -28 -46 34 -40 -35 47 0
-3 15 -4 -22 5 -29 -6 36 -12 -30 -14 44 -20 38 -21 45 -27 39 -28 -46 34 -40 -35 47 0
-3 15 -4 -22 5 -29 -6 36 -12 30 -14 44 -20 38 -21 45 -27 39 -28 -46 34 -40 -35 47 0
3 -15 4 -22 5 -29 -6 36 12 -30 -14 44 20 -38 -21 45 27 -39 28 -46 -34 -40 35 -47 0
3 -15 4 -22 5 -29 -6 36 12 -30 -14 44 20 -38 -21 45 27 -39 -28 -46 -34 -40 35 -47 0
-3 15 4 -22 5 -29 -6 36 12 -30 -14 44 20 -38 -21 45 27 -39 28 -46 -34 -40 35 -47 0
-3 15 4 -22 5 -29 -6 36 12 -30 -14 44 20 -38 -21 45 27 -39 -28 -46 -34 -40 35 -47 0
-3 -15 4 -22 5 -29 -6 36 12 -30 -14 44 -20 -38 -21 45 -27 -39 28 -46 -34 40 -35 -47 0
-3 15 -4 -22 5 -29 -6 36 12 -30 -14 44 -20 38 -21 45 -27 39 -28 46 -34 -40 -35 47 0
-3 15 -4 -22 5 -29 -6 36 -12 -30 -14 44 -20 38 -21 45 -27 39 -28 46 -34 -40 -35 47 0
-3 15 -4 -22 5 -29 -6 36 -12 30 -14 44 -20 38 -21 45 -27 39 -28 46 -34 -40 -35 47 0
3 -15 4 -22 5 -29 -6 36 12 -30 -14 44 -20 -38 -21 45 -27 -39 28 -46 -34 40 -35 -47 0
3 -15 4 -22 5 -29 -6 36 12 -30 -14 44 -20 -38 -21 45 -27 -39 -28 -46 -34 40 -35 -47 0
-3 15 4 -22 5 -29 -6 36 12 -30 -14 44 -20 -38 -21 45 -27 -39 28 -46 -34 40 -35 -47 0
-3 15 4 -22 5 -29 -6 36 12 -30 -14 44 -20 -38 -21 45 -27 -39 -28 -46 -34 40 -35 -47 0
-3 -15 4 -22 5 -29 -6 36 12 -30 -14 44 -20 -38 -21 45 -27 -39 28 -46 -34 40 35 -47 0
-3 15 -4 -22 5 -29 -6 36 12 -30 -14 44 -20 38 -21 45 -27 39 -28 46 34 -40 -35 47 0
-3 15 -4 -22 5 -29 -6 36 -12 -30 -14 44 -20 38 -21 45 -27 39 -28 46 34 -40 -35 47 0
-3 -15 4 -22 5 -29 -6 36 12 -30 -14 44 -20 -38 -21 45 -27 -39 -28 -46 -34 40 35 -47 0
-3 15 -4 -22 5 -29 -6 36 -12 30 -14 44 -20 38 -21 45 -27 39 -28 46 34 -40 -35 47 0
-3 15 -4 -22 5 -29 6 -36 12 -30 -14 -44 -20 38 -21 45 -27 39 -28 -46 34 -40 -35 -47 0
-3 15 -4 -22 5 -29 6 -36 -12 30 -14 -44 -20 38 -21 45 -27 39 -28 -46 34 -40 -35 -47 0
-3 15 -4 -22 5 -29 6 -36 12 -30 -14 -44 -20 38 -21 45 -27 39 -28 46 -34 -40 -35 -47 0
-3 15 -4 -22 5 -29 6 -36 -12 30 -14 -44 -20 38 -21 45 -27 39 -28 46 -34 -40 -35 -47 0
3 -15 4 -22 5 -29 -6 36 12 -30 -14 44 -20 -38 -21 45 -27 -39 28 -46 -34 40 35 -47 0
3 -15 4 -22 5 -29 -6 36 12 -30 -14 44 -20 -38 -21 45 -27 -39 -28 -46 -34 40 35 -47 0
-3 15 4 -22 5 -29 -6 36 12 -30 -14 44 -20 -38 -21 45 -27 -39 28 -46 -34 40 35 -47 0
-3 15 4 -22 5 -29 -6 36 12 -30 -14 44 -20 -38 -21 45 -27 -39 -28 -46 -34 40 35 -47 0
-3 -15 4 -22 5 -29 -6 36 12 -30 -14 44 -20 -38 -21 45 -27 -39 28 -46 -34 40 -35 47 0
-3 15 -4 -22 5 -29 -6 -36 12 -30 -14 -44 -20 38 -21 45 -27 39 -28 46 34 -40 -35 -47 0
-3 15 -4 -22 5 -29 6 -36 12 -30 -14 -44 -20 38 -21 45 -27 39 -28 46 34 -40 -35 -47 0
-3 15 -4 -22 5 -29 -6 -36 -12 30 -14 -44 -20 38 -21 45 -27 39 -28 46 34 -40 -35 -47 0
-3 -15 4 -22 5 -29 -6 36 12 -30 -14 44 -20 -38 -21 45 -27 -39 -28 -46 -34 40 -35 47 0
-3 15 -4 -22 5 -29 6 -36 -12 -30 -14 -44 -20 38 -21 45 -27 39 -28 46 34 -40 -35 -47 0
-3 15 -4 -22 5 -29 6 -36 -12 30 -14 -44 -20 38 -21 45 -27 39 -28 46 34 -40 -35 -47 0
-3 15 -4 -22 5 -29 6 -36 12 -30 -14 44 -20 38 -21 45 -27 39 -28 -46 -34 -40 -35 -47 0
-3 15 -4 -22 5 -29 6 -36 -12 30 -14 44 -20 38 -21 45 -27 39 -28 -46 -34 -40 -35 -47 0
-3 15 -4 -22 5 -29 -6 -36 12 -30 -14 44 -20 38 -21 45 -27 39 -28 -46 34 -40 -35 -47 0
3 -15 4 -22 5 -29 -6 36 12 -30 -14 44 -20 -38 -21 45 -27 -39 28 -46 -34 40 -35 47 0
3 -15 4 -22 5 -29 -6 36 12 -30 -14 44 -20 -38 -21 45 -27 -39 -28 -46 -34 40 -35 47 0
-3 15 4 -22 5 -29 -6 36 12 -30 -14 44 -20 -38 -21 45 -27 -39 28 -46 -34 40 -35 47 0
-3 15 4 -22 5 -29 -6 36 12 -30 -14 44 -20 -38 -21 45 -27 -39 -28 -46 -34 40 -35 47 0
-3 -15 4 -22 5 -29 -6 36 12 -30 -14 44 -20 -38 -21 45 -27 39 28 -46 -34 40 -35 -47 0
-3 15 -4 -22 5 -29 6 -36 12 -30 -14 44 -20 38 -21 45 -27 39 -28 -46 34 -40 -35 -47 0
-3 15 -4 -22 5 -29 -6 -36 -12 30 -14 44 -20 38 -21 45 -27 39 -28 -46 34 -40 -35 -47 0
-3 -15 4 -22 5 -29 -6 36 12 -30 -14 44 -20 -38 -21 45 -27 39 -28 -46 -34 40 -35 -47 0
-3 15 -4 -22 5 -29 6 -36 -12 -30 -14 44 -20 38 -21 45 -27 39 -28 -46 34 -40 -35 -47 0
-3 15 -4 -22 5 -29 6 -36 -12 30 -14 44 -20 38 -21 45 -27 39 -28 -46 34 -40 -35 -47 0
-3 15 -4 -22 5 -29 -6 -36 12 -30 -14 44 -20 38 -21 45 -27 39 -28 46 -34 -40 -35 -47 0
-3 15 -4 -22 5 -29 6 -36 12 -30 -14 44 -20 38 -21 45 -27 39 -28 46 -34 -40 -35 -47 0
-3 15 -4 -22 5 -29 -6 -36 -12 30 -14 44 -20 38 -21 45 -27 39 -28 46 -34 -40 -35 -47 0
3 -15 4 -22 5 -29 -6 36 12 -30 -14 44 -20 -38 -21 45 -27 39 28 -46 -34 40 -35 -47 0
3 -15 4 -22 5 -29 -6 36 12 -30 -14 44 -20 -38 -21 45 -27 39 -28 -46 -34 40 -35 -47 0
-3 15 4 -22 5 -29 -6 36 12 -30 -14 44 -20 -38 -21 45 -27 39 28 -46 -34 40 -35 -47 0
-3 15 4 -22 5 -29 -6 36 12 -30 -14 44 -20 -38 -21 45 -27 39 -28 -46 -34 40 -35 -47 0
-3 -15 4 -22 5 -29 -6 36 12 -30 -14 44 -20 -38 -21 45 -27 39 28 -46 -34 40 -35 47 0
-3 15 -4 -22 5 -29 6 -36 -12 -30 -14 44 -20 38 -21 45 -27 39 -28 46 -34 -40 -35 -47 0
-3 15 -4 -22 5 -29 6 -36 -12 30 -14 44 -20 38 -21 45 -27 39 -28 46 -34 -40 -35 -47 0
-3 -15 4 -22 5 -29 -6 36 12 -30 -14 44 -20 -38 -21 45 -27 39 -28 -46 -34 40 -35 47 0
-3 15 -4 -22 5 -29 -6 -36 12 -30 -14 44 -20 38 -21 45 -27 39 -28 46 34 -40 -35 -47 0
-3 15 -4 -22 5 -29 6 -36 12 -30 -14 44 -20 38 -21 45 -27 39 -28 46 34 -40 -35 -47 0
-3 15 -4 -22 5 -29 -6 -36 -12 -30 -14 44 -20 38 -21 45 -27 39 -28 46 34 -40 -35 -47 0
-3 15 -4 -22 5 -29 -6 -36 -12 30 -14 44 -20 38 -21 45 -27 39 -28 46 34 -40 -35 -47 0
3 -15 4 -22 5 -29 -6 36 12 -30 -14 44 -20 -38 -21 45 -27 39 28 -46 -34 40 -35 47 0
3 -15 4 -22 5 -29 -6 36 12 -30 -14 44 -20 -38 -21 45 -27 39 -28 -46 -34 40 -35 47 0
-3 15 4 -22 5 -29 -6 36 12 -30 -14 44 -20 -38 -21 45 -27 39 28 -46 -34 40 -35 47 0
-3 15 4 -22 5 -29 -6 36 12 -30 -14 44 -20 -38 -21 45 -27 39 -28 -46 -34 40 -35 47 0
-3 -15 4 -22 5 -29 -6 36 12 -30 -14 44 -20 -38 -21 45 -27 39 28 -46 -34 40 35 -47 0
-3 15 -4 -22 5 -29 6 -36 -12 -30 -14 44 -20 38 -21 45 -27 39 -28 46 34 -40 -35 -47 0
-3 15 -4 -22 5 -29 6 -36 -12 30 -14 44 -20 38 -21 45 -27 39 -28 46 34 -40 -35 -47 0
-3 15 -4 -22 5 -29 6 -36 12 -30 -14 -44 -20 38 -21 45 -27 39 -28 -46 -34 -40 -35 47 0
-3 -15 4 -22 5 -29 -6 36 12 -30 -14 44 -20 -38 -21 45 -27 39 -28 -46 -34 40 35 -47 0
-3 15 -4 -22 5 -29 6 -36 -12 30 -14 -44 -20 38 -21 45 -27 39 -28 -46 -34 -40 -35 47 0
-3 15 -4 -22 5 -29 -6 -36 12 -30 -14 -44 -20 38 -21 45 -27 39 -28 -46 34 -40 -35 47 0
-3 15 -4 -22 5 -29 6 -36 12 -30 -14 -44 -20 38 -21 45 -27 39 -28 -46 34 -40 -35 47 0
-3 15 -4 -22 5 -29 -6 -36 -12 30 -14 -44 -20 38 -21 45 -27 39 -28 -46 34 -40 -35 47 0
-3 15 -4 -22 5 -29 6 -36 -12 -30 -14 -44 -20 38 -21 45 -27 39 -28 -46 34 -40 -35 47 0
3 -15 4 -22 5 -29 -6 36 12 -30 -14 44 -20 -38 -21 45 -27 39 28 -46 -34 40 35 -47 0
3 -15 4 -22 5 -29 -6 36 12 -30 -14 44 -20 -38 -21 45 -27 39 -28 -46 -34 40 35 -47 0
-3 15 4 -22 5 -29 -6 36 12 -30 -14 44 -20 -38 -21 45 -27 39 28 -46 -34 40 35 -47 0
-3 15 4 -22 5 -29 -6 36 12 -30 -14 44 -20 -38 -21 45 -27 39 -28 -46 -34 40 35 -47 0
-3 -15 4 -22 5 -29 -6 36 12 -30 -14 44 -20 38 -21 45 -27 -39 28 -46 -34 40 -35 -47 0
-3 15 -4 -22 5 -29 6 -36 -12 30 -14 -44 -20 38 -21 45 -27 39 -28 -46 34 -40 -35 47 0
-3 15 -4 -22 5 -29 -6 -36 12 -30 -14 -44 -20 38 -21 45 -27 39 -28 46 -34 -40 -35 47 0
-3 -15 4 -22 5 -29 -6 36 12 -30 -14 44 -20 38 -21 45 -27 -39 -28 -46 -34 40 -35 -47 0
-3 15 -4 -22 5 -29 6 -36 12 -30 -14 -44 -20 38 -21 45 -27 39 -28 46 -34 -40 -35 47 0
-3 15 -4 -22 5 -29 -6 -36 -12 30 -14 -44 -20 38 -21 45 -27 39 -28 46 -34 -40 -35 47 0
-3 15 -4 -22 5 -29 6 -36 -12 -30 -14 -44 -20 38 -21 45 -27 39 -28 46 -34 -40 -35 47 0
-3 15 -4 -22 5 -29 6 -36 -12 30 -14 -44 -20 38 -21 45 -27 39 -28 46 -34 -40 -35 47 0
-3 15 -4 -22 5 -29 -6 -36 12 -30 -14 -44 -20 38 -21 45 -27 39 -28 46 34 -40 -35 47 0
3 -15 4 -22 5 -29 -6 36 12 -30 -14 44 -20 38 -21 45 -27 -39 28 -46 -34 40 -35 -47 0
3 -15 4 -22 5 -29 -6 36 12 -30 -14 44 -20 38 -21 45 -27 -39 -28 -46 -34 40 -35 -47 0
-3 15 4 -22 5 -29 -6 36 12 -30 -14 44 -20 38 -21 45 -27 -39 28 -46 -34 40 -35 -47 0
-3 15 4 -22 5 -29 -6 36 12 -30 -14 44 -20 38 -21 45 -27 -39 -28 -46 -34 40 -35 -47 0
-3 -15 4 -22 5 -29 -6 36 12 -30 -14 44 -20 38 -21 45 -27 -39 28 -46 -34 40 -35 47 0
-3 15 -4 -22 5 -29 6 -36 12 -30 -14 -44 -20 38 -21 45 -27 39 -28 46 34 -40 -35 47 0
-3 15 -4 -22 5 -29 -6 -36 -12 -30 -14 -44 -20 38 -21 45 -27 39 -28 46 34 -40 -35 47 0
-3 15 -4 -22 5 -29 -6 -36 -12 30 -14 -44 -20 38 -21 45 -27 39 -28 46 34 -40 -35 47 0
-3 -15 4 -22 5 -29 -6 36 12 -30 -14 44 -20 38 -21 45 -27 -39 -28 -46 -34 40 -35 47 0
-3 15 -4 -22 5 -29 6 -36 -12 -30 -14 -44 -20 38 -21 45 -27 39 -28 46 34 -40 -35 47 0
-3 15 -4 -22 5 -29 6 -36 -12 30 -14 -44 -20 38 -21 45 -27 39 -28 46 34 -40 -35 47 0
-3 15 -4 -22 5 -29 -6 -36 12 -30 -14 44 -20 38 -21 45 -27 39 -28 -46 -34 -40 -35 47 0
-3 15 -4 -22 5 -29 6 -36 12 -30 -14 44 -20 38 -21 45 -27 39 -28 -46 -34 -40 -35 47 0
3 -15 4 -22 5 -29 -6 36 12 -30 -14 44 -20 38 -21 45 -27 -39 28 -46 -34 40 -35 47 0
3 -15 4 -22 5 -29 -6 36 12 -30 -14 44 -20 38 -21 45 -27 -39 -28 -46 -34 40 -35 47 0
-3 15 4 -22 5 -29 -6 36 12 -30 -14 44 -20 38 -21 45 -27 -39 28 -46 -34 40 -35 47 0
-3 15 4 -22 5 -29 -6 36 12 -30 -14 44 -20 38 -21 45 -27 -39 -28 -46 -34 40 -35 47 0
-3 -15 4 -22 5 -29 -6 36 12 -30 -14 44 -20 38 -21 45 -27 -39 28 -46 -34 40 35 -47 0
-3 15 -4 -22 5 -29 6 -36 -12 -30 -14 44 -20 38 -21 45 -27 39 -28 -46 -34 -40 -35 47 0
-3 15 -4 -22 5 -29 -6 -36 -12 30 -14 44 -20 38 -21 45 -27 39 -28 -46 -34 -40 -35 47 0
-3 -15 4 -22 5 -29 -6 36 12 -30 -14 44 -20 38 -21 45 -27 -39 -28 -46 -34 40 35 -47 0
-3 15 -4 -22 5 -29 6 -36 -12 30 -14 44 -20 38 -21 45 -27 39 -28 -46 -34 -40 -35 47 0
-3 15 -4 -22 5 -29 -6 -36 12 -30 -14 44 -20 38 -21 45 -27 39 -28 -46 34 -40 -35 47 0
-3 15 -4 -22 5 -29 6 -36 12 -30 -14 44 -20 38 -21 45 -27 39 -28 -46 34 -40 -35 47 0
-3 15 -4 -22 5 -29 -6 -36 -12 -30 -14 44 -20 38 -21 45 -27 39 -28 -46 34 -40 -35 47 0
-3 15 -4 -22 5 -29 6 -36 -12 -30 -14 44 -20 38 -21 45 -27 39 -28 -46 34 -40 -35 47 0
3 -15 4 -22 5 -29 -6 36 12 -30 -14 44 -20 38 -21 45 -27 -39 28 -46 -34 40 35 -47 0
3 -15 4 -22 5 -29 -6 36 12 -30 -14 44 -20 38 -21 45 -27 -39 -28 -46 -34 40 35 -47 0
-3 15 4 -22 5 -29 -6 36 12 -30 -14 44 -20 38 -21 45 -27 -39 28 -46 -34 40 35 -47 0
-3 15 4 -22 5 -29 -6 36 12 -30 -14 44 -20 38 -21 45 -27 -39 -28 -46 -34 40 35 -47 0
-3 -15 4 -22 5 -29 -6 36 12 -30 -14 44 -20 38 -21 45 -27 39 28 -46 -34 40 -35 -47 0
-3 15 -4 -22 5 -29 -6 -36 -12 30 -14 44 -20 38 -21 45 -27 39 -28 -46 34 -40 -35 47 0
-3 15 -4 -22 5 -29 6 -36 -12 30 -14 44 -20 38 -21 45 -27 39 -28 -46 34 -40 -35 47 0
-3 15 -4 -22 5 -29 -6 -36 12 -30 -14 44 -20 38 -21 45 -27 39 -28 46 -34 -40 -35 47 0
-3 -15 4 -22 5 -29 -6 36 12 -30 -14 44 -20 38 -21 45 -27 39 -28 -46 -34 40 -35 -47 0
-3 15 -4 -22 5 -29 6 -36 12 -30 -14 44 -20 38 -21 45 -27 39 -28 46 -34 -40 -35 47 0
-3 15 -4 -22 5 -29 -6 -36 -12 -30 -14 44 -20 38 -21 45 -27 39 -28 46 -34 -40 -35 47 0
-3 15 -4 -22 5 -29 6 -36 -12 -30 -14 44 -20 38 -21 45 -27 39 -28 46 -34 -40 -35 47 0
-3 15 -4 -22 5 -29 -6 -36 -12 30 -14 44 -20 38 -21 45 -27 39 -28 46 -34 -40 -35 47 0
3 -15 4 -22 5 -29 -6 36 12 -30 -14 44 -20 38 -21 45 -27 39 28 -46 -34 40 -35 -47 0
3 -15 4 -22 5 -29 -6 36 12 -30 -14 44 -20 38 -21 45 -27 39 -28 -46 -34 40 -35 -47 0
-3 15 4 -22 5 -29 -6 36 12 -30 -14 44 -20 38 -21 45 -27 39 28 -46 -34 40 -35 -47 0
-3 15 4 -22 5 -29 -6 36 12 -30 -14 44 -20 38 -21 45 -27 39 -28 -46 -34 40 -35 -47 0
-3 -15 4 -22 5 -29 -6 36 12 -30 -14 44 -20 38 -21 45 -27 39 28 -46 -34 40 -35 47 0
-3 15 -4 -22 5 -29 6 -36 -12 30 -14 44 -20 38 -21 45 -27 39 -28 46 -34 -40 -35 47 0
-3 15 -4 -22 5 -29 -6 -36 12 -30 -14 44 -20 38 -21 45 -27 39 -28 46 34 -40 -35 47 0
-3 15 -4 -22 5 -29 6 -36 12 -30 -14 44 -20 38 -21 45 -27 39 -28 46 34 -40 -35 47 0
-3 -15 4 -22 5 -29 -6 36 12 -30 -14 44 -20 38 -21 45 -27 39 -28 -46 -34 40 -35 47 0
-3 15 -4 -22 5 -29 -6 -36 -12 -30 -14 44 -20 38 -21 45 -27 39 -28 46 34 -40 -35 47 0
-3 15 -4 -22 5 -29 6 -36 -12 -30 -14 44 -20 38 -21 45 -27 39 -28 46 34 -40 -35 47 0
-3 15 -4 -22 5 -29 -6 -36 -12 30 -14 44 -20 38 -21 45 -27 39 -28 46 34 -40 -35 47 0
-3 15 -4 -22 5 -29 6 -36 -12 30 -14 44 -20 38 -21 45 -27 39 -28 46 34 -40 -35 47 0
-3 15 -4 -22 5 -29 -6 36 12 -30 -14 -44 -20 38 -21 45 -27 39 -28 -46 -34 -40 35 -47 0
3 -15 4 -22 5 -29 -6 36 12 -30 -14 44 -20 38 -21 45 -27 39 28 -46 -34 40 -35 47 0
3 -15 4 -22 5 -29 -6 36 12 -30 -14 44 -20 38 -21 45 -27 39 -28 -46 -34 40 -35 47 0
-3 15 4 -22 5 -29 -6 36 12 -30 -14 44 -20 38 -21 45 -27 39 28 -46 -34 40 -35 47 0
-3 15 4 -22 5 -29 -6 36 12 -30 -14 44 -20 38 -21 45 -27 39 -28 -46 -34 40 -35 47 0
-3 -15 4 -22 5 -29 -6 36 12 -30 -14 44 -20 38 -21 45 -27 39 28 -46 -34 40 35 -47 0
-3 15 -4 -22 5 -29 -6 36 -12 30 -14 -44 -20 38 -21 45 -27 39 -28 -46 -34 -40 35 -47 0
-3 15 -4 -22 5 -29 -6 36 12 -30 -14 -44 -20 38 -21 45 -27 39 -28 -46 34 -40 35 -47 0
-3 -15 4 -22 5 -29 -6 36 12 -30 -14 44 -20 38 -21 45 -27 39 -28 -46 -34 40 35 -47 0
-3 15 -4 -22 5 -29 -6 36 -12 -30 -14 -44 -20 38 -21 45 -27 39 -28 -46 34 -40 35 -47 0
-3 15 -4 -22 5 -29 -6 36 -12 30 -14 -44 -20 38 -21 45 -27 39 -28 -46 34 -40 35 -47 0
-3 15 -4 -22 5 -29 -6 36 12 -30 -14 -44 -20 38 -21 45 -27 39 -28 46 -34 -40 35 -47 0
3 -15 4 -22 5 -29 -6 36 12 -30 -14 44 -20 38 -21 45 -27 39 28 -46 -34 40 35 -47 0
3 -15 4 -22 5 -29 -6 36 12 -30 -14 44 -20 38 -21 45 -27 39 -28 -46 -34 40 35 -47 0
-3 15 4 -22 5 -29 -6 36 12 -30 -14 44 -20 38 -21 45 -27 39 28 -46 -34 40 35 -47 0
-3 15 4 -22 5 -29 -6 36 12 -30 -14 44 -20 38 -21 45 -27 39 -28 -46 -34 40 35 -47 0
-3 -15 4 -22 5 -29 -6 36 12 -30 -14 44 -20 -38 -21 45 27 -39 28 -46 -34 40 -35 -47 0
-3 15 -4 -22 5 -29 -6 36 -12 -30 -14 -44 -20 38 -21 45 -27 39 -28 46 -34 -40 35 -47 0
-3 15 -4 -22 5 -29 -6 36 -12 30 -14 -44 -20 38 -21 45 -27 39 -28 46 -34 -40 35 -47 0
-3 15 -4 -22 5 -29 -6 36 12 -30 -14 -44 -20 38 -21 45 -27 39 -28 46 34 -40 35 -47 0
-3 -15 4 -22 5 -29 -6 36 12 -30 -14 44 -20 -38 -21 45 27 -39 -28 -46 -34 40 -35 -47 0
-3 15 -4 -22 5 -29 -6 36 -12 -30 -14 -44 -20 38 -21 45 -27 39 -28 46 34 -40 35 -47 0
-3 15 -4 -22 5 -29 -6 36 -12 30 -14 -44 -20 38 -21 45 -27 39 -28 46 34 -40 35 -47 0
-3 15 -4 -22 5 -29 -6 36 12 -30 -14 44 -20 38 -21 45 -27 39 -28 -46 -34 -40 35 -47 0
-3 15 -4 -22 5 -29 -6 36 -12 -30 -14 44 -20 38 -21 45 -27 39 -28 -46 -34 -40 35 -47 0
-3 15 -4 -22 5 -29 -6 36 -12 30 -14 44 -20 38 -21 45 -27 39 -28 -46 -34 -40 35 -47 0
3 -15 4 -22 5 -29 -6 36 12 -30 -14 44 -20 -38 -21 45 27 -39 28 -46 -34 40 -35 -47 0
3 -15 4 -22 5 -29 -6 36 12 -30 -14 44 -20 -38 -21 45 27 -39 -28 -46 -34 40 -35 -47 0
-3 15 4 -22 5 -29 -6 36 12 -30 -14 44 -20 -38 -21 45 27 -39 28 -46 -34 40 -35 -47 0
-3 15 4 -22 5 -29 -6 36 12 -30 -14 44 -20 -38 -21 45 27 -39 -28 -46 -34 40 -35 -47 0
-3 -15 4 -22 5 -29 -6 36 12 -30 -14 44 -20 -38 -21 45 27 -39 28 -46 -34 40 -35 47 0
-3 15 -4 -22 5 -29 -6 36 12 -30 -14 44 -20 38 -21 45 -27 39 -28 -46 34 -40 35 -47 0
-3 15 -4 -22 -5 -29 -6 36 12 -30 -14 44 -20 38 -21 45 -27 39 28 -46 34 -40 35 -47 0
3 -15 -4 -22 5 -29 -6 36 12 -30 -14 44 -20 38 -21 45 -27 39 28 -46 34 -40 -35 47 0
-3 15 -4 -22 -5 29 -6 36 -12 30 14 -44 20 -38 -21 45 -27 39 -28 46 -34 40 35 -47 0
-3 -15 4 -22 5 -29 -6 36 12 -30 -14 44 -20 -38 -21 45 27 -39 -28 -46 -34 40 -35 47 0
3 -15 -4 -22 5 -29 -6 36 12 -30 -14 44 -20 38 21 -45 -27 39 28 -46 34 -40 -35 47 0
3 -15 4 -22 5 -29 -6 36 12 -30 -14 44 -20 38 21 -45 -27 39 28 -46 34 -40 -35 47 0
3 -15 4 -22 5 -29 -6 36 12 -30 -14 44 -20 -38 -21 45 27 -39 28 -46 -34 40 -35 47 0
3 -15 4 -22 5 -29 -6 36 12 -30 -14 44 -20 -38 -21 45 27 -39 -28 -46 -34 40 -35 47 0
-3 15 4 -22 5 -29 -6 36 12 -30 -14 44 -20 -38 -21 45 27 -39 28 -46 -34 40 -35 47 0
-3 15 4 -22 5 -29 -6 36 12 -30 -14 44 -20 -38 -21 45 27 -39 -28 -46 -34 40 -35 47 0
-3 -15 4 -22 5 -29 -6 36 12 -30 -14 44 -20 -38 -21 45 27 -39 28 -46 -34 40 35 -47 0
3 -15 -4 -22 -5 29 -6 36 12 -30 -14 44 -20 38 21 -45 -27 39 28 -46 34 -40 -35 47 0
-3 -15 4 -22 5 -29 -6 36 12 -30 -14 44 -20 -38 -21 45 27 -39 -28 -46 -34 40 35 -47 0
3 -15 4 -22 -5 29 -6 36 12 -30 -14 44 -20 38 21 -45 -27 39 28 -46 34 -40 -35 47 0
3 -15 4 -22 -5 29 6 -36 12 -30 -14 44 -20 38 21 -45 -27 39 28 -46 34 -40 -35 47 0
3 -15 4 -22 -5 29 -6 -36 12 -30 -14 44 -20 38 21 -45 -27 39 28 -46 34 -40 -35 47 0
3 -15 4 -22 -5 29 -6 36 -12 30 -14 44 -20 38 21 -45 -27 39 28 -46 34 -40 -35 47 0
3 -15 4 -22 -5 29 -6 36 -12 -30 -14 44 -20 38 21 -45 -27 39 28 -46 34 -40 -35 47 0
3 -15 4 -22 -5 29 -6 36 12 -30 -14 44 -20 38 21 -45 -27 39 28 -46 -34 40 -35 47 0
3 -15 4 -22 5 -29 -6 36 12 -30 -14 44 -20 -38 -21 45 27 -39 28 -46 -34 40 35 -47 0
3 -15 4 -22 5 -29 -6 36 12 -30 -14 44 -20 -38 -21 45 27 -39 -28 -46 -34 40 35 -47 0
-3 15 4 -22 5 -29 -6 36 12 -30 -14 44 -20 -38 -21 45 27 -39 28 -46 -34 40 35 -47 0
-3 15 4 -22 5 -29 -6 36 12 -30 -14 44 -20 -38 -21 45 27 -39 -28 -46 -34 40 35 -47 0
-3 -15 4 -22 5 -29 -6 36 12 -30 -14 44 -20 38 -21 45 27 -39 28 -46 -34 40 -35 -47 0
3 -15 -4 -22 -5 29 -6 36 12 -30 -14 44 -20 38 21 -45 27 -39 28 -46 34 -40 -35 47 0
3 -15 4 -22 -5 29 -6 36 12 -30 -14 44 -20 38 21 -45 27 -39 28 -46 34 -40 -35 47 0
3 -15 -4 -22 5 -29 -6 36 12 -30 -14 44 -20 38 21 -45 27 -39 28 -46 34 -40 -35 47 0
3 -15 4 -22 5 -29 -6 36 12 -30 -14 44 -20 38 21 -45 27 -39 28 -46 34 -40 -35 47 0
3 -15 4 -22 -5 -29 -6 36 12 -30 -14 44 -20 38 21 -45 27 -39 28 -46 34 -40 -35 47 0
-3 -15 4 -22 5 -29 -6 36 12 -30 -14 44 -20 38 -21 45 27 -39 -28 -46 -34 40 -35 -47 0
-3 15 -4 -22 -5 29 -6 36 12 -30 -14 44 -20 38 21 -45 27 -39 28 -46 34 -40 -35 47 0
-3 15 4 -22 -5 29 -6 36 12 -30 -14 44 -20 38 21 -45 27 -39 28 -46 34 -40 -35 47 0
-3 -15 -4 -22 -5 29 -6 36 12 -30 -14 44 -20 38 21 -45 27 -39 28 -46 34 -40 -35 47 0
-3 -15 4 -22 -5 29 -6 36 12 -30 -14 44 -20 38 21 -45 27 -39 28 -46 34 -40 -35 47 0
-3 15 -4 -22 5 -29 -6 36 -12 -30 -14 44 -20 38 -21 45 -27 39 -28 -46 34 -40 35 -47 0
-3 15 -4 -22 5 -29 -6 36 -12 30 -14 44 -20 38 -21 45 -27 39 -28 -46 34 -40 35 -47 0
-3 15 -4 -22 5 -29 -6 36 12 -30 -14 44 -20 38 -21 45 -27 39 -28 46 -34 -40 35 -47 0
-3 15 -4 -22 5 -29 -6 36 -12 -30 -14 44 -20 38 -21 45 -27 39 -28 46 -34 -40 35 -47 0
-3 15 -4 -22 5 -29 -6 36 -12 30 -14 44 -20 38 -21 45 -27 39 -28 46 -34 -40 35 -47 0
-3 15 -4 -22 5 -29 -6 36 -12 -30 -14 44 -20 38 -21 45 -27 39 -28 46 34 -40 35 -47 0
-3 15 -4 -22 5 -29 6 -36 12 -30 -14 -44 -20 38 -21 45 -27 39 -28 -46 -34 -40 35 -47 0
-3 15 -4 -22 5 -29 6 -36 -12 30 -14 -44 -20 38 -21 45 -27 39 -28 -46 -34 -40 35 -47 0
3 -15 4 -22 5 -29 -6 36 12 -30 -14 44 -20 38 -21 45 27 -39 28 -46 -34 40 -35 -47 0
3 -15 4 -22 5 -29 -6 36 12 -30 -14 44 -20 38 -21 45 27 -39 -28 -46 -34 40 -35 -47 0
-3 15 4 -22 5 -29 -6 36 12 -30 -14 44 -20 38 -21 45 27 -39 28 -46 -34 40 -35 -47 0
-3 15 4 -22 5 -29 -6 36 12 -30 -14 44 -20 38 -21 45 27 -39 -28 -46 -34 40 -35 -47 0
-3 -15 4 -22 5 -29 -6 36 12 -30 -14 44 -20 38 -21 45 27 -39 28 -46 -34 40 -35 47 0
-3 15 -4 -22 5 -29 -6 -36 12 -30 -14 -44 -20 38 -21 45 -27 39 -28 -46 34 -40 35 -47 0
-3 15 -4 -22 5 -29 6 -36 12 -30 -14 -44 -20 38 -21 45 -27 39 -28 -46 34 -40 35 -47 0
-3 -15 4 -22 5 -29 -6 36 12 -30 -14 44 -20 38 -21 45 27 -39 -28 -46 -34 40 -35 47 0
-3 15 -4 -22 5 -29 -6 -36 -12 30 -14 -44 -20 38 -21 45 -27 39 -28 -46 34 -40 35 -47 0
-3 15 -4 -22 5 -29 6 -36 -12 -30 -14 -44 -20 38 -21 45 -27 39 -28 -46 34 -40 35 -47 0
-3 15 -4 -22 5 -29 6 -36 -12 30 -14 -44 -20 38 -21 45 -27 39 -28 -46 34 -40 35 -47 0
-3 15 -4 -22 5 -29 -6 -36 12 -30 -14 44 -20 38 -21 45 -27 39 -28 -46 -34 -40 35 -47 0
3 -15 4 -22 5 -29 -6 36 12 -30 -14 44 -20 38 -21 45 27 -39 28 -46 -34 40 -35 47 0
3 -15 4 -22 5 -29 -6 36 12 -30 -14 44 -20 38 -21 45 27 -39 -28 -46 -34 40 -35 47 0
-3 15 4 -22 5 -29 -6 36 12 -30 -14 44 -20 38 -21 45 27 -39 28 -46 -34 40 -35 47 0
-3 15 4 -22 5 -29 -6 36 12 -30 -14 44 -20 38 -21 45 27 -39 -28 -46 -34 40 -35 47 0
-3 -15 4 -22 5 -29 -6 36 12 -30 -14 44 -20 38 -21 45 27 -39 28 -46 -34 40 35 -47 0
-3 15 -4 -22 5 -29 6 -36 12 -30 -14 44 -20 38 -21 45 -27 39 -28 -46 -34 -40 35 -47 0
-3 15 -4 -22 5 -29 -6 -36 -12 30 -14 44 -20 38 -21 45 -27 39 -28 -46 -34 -40 35 -47 0
-3 15 -4 -22 5 -29 6 -36 -12 -30 -14 44 -20 38 -21 45 -27 39 -28 -46 -34 -40 35 -47 0
-3 15 -4 -22 5 -29 6 -36 -12 30 -14 44 -20 38 -21 45 -27 39 -28 -46 -34 -40 35 -47 0
-3 -15 4 -22 5 -29 -6 36 12 -30 -14 44 -20 38 -21 45 27 -39 -28 -46 -34 40 35 -47 0
-3 15 -4 -22 5 -29 -6 -36 12 -30 -14 44 -20 38 -21 45 -27 39 -28 -46 34 -40 35 -47 0
-3 15 -4 -22 5 -29 6 -36 12 -30 -14 44 -20 38 -21 45 -27 39 -28 -46 34 -40 35 -47 0
-3 15 -4 -22 5 -29 -6 -36 -12 -30 -14 44 -20 38 -21 45 -27 39 -28 -46 34 -40 35 -47 0
-3 15 -4 -22 5 -29 -6 -36 -12 30 -14 44 -20 38 -21 45 -27 39 -28 -46 34 -40 35 -47 0
3 -15 4 -22 5 -29 -6 36 12 -30 -14 44 -20 38 -21 45 27 -39 -28 -46 -34 40 35 -47 0
-3 15 4 -22 5 -29 -6 36 12 -30 -14 44 -20 38 -21 45 27 -39 28 -46 -34 40 35 -47 0
-3 15 4 -22 5 -29 -6 36 12 -30 -14 44 -20 38 -21 45 27 -39 -28 -46 -34 40 35 -47 0
-3 -15 4 -22 5 -29 -6 36 12 -30 -14 44 20 -38 -21 45 -27 -39 28 -46 -34 40 -35 -47 0
-3 15 -4 -22 5 -29 6 -36 -12 -30 -14 44 -20 38 -21 45 -27 39 -28 -46 34 -40 35 -47 0
-3 15 -4 -22 5 -29 6 -36 -12 30 -14 44 -20 38 -21 45 -27 39 -28 -46 34 -40 35 -47 0
-3 15 -4 -22 5 -29 -6 -36 12 -30 -14 -44 -20 38 -21 45 -27 39 -28 46 -34 -40 35 -47 0
-3 15 -4 -22 5 -29 6 -36 12 -30 -14 -44 -20 38 -21 45 -27 39 -28 46 -34 -40 35 -47 0
-3 -15 4 -22 5 -29 -6 36 12 -30 -14 44 20 -38 -21 45 -27 -39 -28 -46 -34 40 -35 -47 0
-3 15 -4 -22 5 -29 -6 -36 -12 30 -14 -44 -20 38 -21 45 -27 39 -28 46 -34 -40 35 -47 0
-3 15 -4 -22 5 -29 6 -36 -12 -30 -14 -44 -20 38 -21 45 -27 39 -28 46 -34 -40 35 -47 0
-3 15 -4 -22 5 -29 6 -36 -12 30 -14 -44 -20 38 -21 45 -27 39 -28 46 -34 -40 35 -47 0
-3 15 -4 -22 5 -29 -6 -36 12 -30 -14 -44 -20 38 -21 45 -27 39 -28 46 34 -40 35 -47 0
-3 15 -4 -22 5 -29 6 -36 12 -30 -14 -44 -20 38 -21 45 -27 39 -28 46 34 -40 35 -47 0
-3 15 -4 -22 5 -29 -6 -36 -12 -30 -14 -44 -20 38 -21 45 -27 39 -28 46 34 -40 35 -47 0
-3 15 -4 -22 5 -29 -6 -36 -12 30 -14 -44 -20 38 -21 45 -27 39 -28 46 34 -40 35 -47 0
3 -15 4 -22 5 -29 -6 36 12 -30 -14 44 20 -38 -21 45 -27 -39 28 -46 -34 40 -35 -47 0
3 -15 4 -22 5 -29 -6 36 12 -30 -14 44 20 -38 -21 45 -27 -39 -28 -46 -34 40 -35 -47 0
-3 15 4 -22 5 -29 -6 36 12 -30 -14 44 20 -38 -21 45 -27 -39 28 -46 -34 40 -35 -47 0
-3 15 4 -22 5 -29 -6 36 12 -30 -14 44 20 -38 -21 45 -27 -39 -28 -46 -34 40 -35 -47 0
-3 -15 4 -22 5 -29 -6 36 12 -30 -14 44 20 -38 -21 45 -27 -39 28 -46 -34 40 -35 47 0
-3 15 -4 -22 5 -29 6 -36 -12 -30 -14 -44 -20 38 -21 45 -27 39 -28 46 34 -40 35 -47 0
-3 15 -4 -22 5 -29 6 -36 -12 30 -14 -44 -20 38 -21 45 -27 39 -28 46 34 -40 35 -47 0
-3 -15 4 -22 5 -29 -6 36 12 -30 -14 44 20 -38 -21 45 -27 -39 -28 -46 -34 40 -35 47 0
-3 15 -4 -22 5 -29 -6 -36 12 -30 -14 44 -20 38 -21 45 -27 39 -28 46 -34 -40 35 -47 0
-3 15 -4 -22 5 -29 6 -36 12 -30 -14 44 -20 38 -21 45 -27 39 -28 46 -34 -40 35 -47 0
-3 15 -4 -22 5 -29 -6 -36 -12 -30 -14 44 -20 38 -21 45 -27 39 -28 46 -34 -40 35 -47 0
-3 15 -4 -22 5 -29 6 -36 -12 -30 -14 44 -20 38 -21 45 -27 39 -28 46 -34 -40 35 -47 0
3 -15 4 -22 5 -29 -6 36 12 -30 -14 44 20 -38 -21 45 -27 -39 28 -46 -34 40 -35 47 0
3 -15 4 -22 5 -29 -6 36 12 -30 -14 44 20 -38 -21 45 -27 -39 -28 -46 -34 40 -35 47 0
-3 15 4 -22 5 -29 -6 36 12 -30 -14 44 20 -38 -21 45 -27 -39 28 -46 -34 40 -35 47 0
-3 15 4 -22 5 -29 -6 36 12 -30 -14 44 20 -38 -21 45 -27 -39 -28 -46 -34 40 -35 47 0
-3 -15 4 -22 5 -29 -6 36 12 -30 -14 44 20 -38 -21 45 -27 -39 28 -46 -34 40 35 -47 0
-3 15 -4 -22 5 -29 -6 -36 -12 30 -14 44 -20 38 -21 45 -27 39 -28 46 -34 -40 35 -47 0
-3 15 -4 -22 5 -29 6 -36 -12 30 -14 44 -20 38 -21 45 -27 39 -28 46 -34 -40 35 -47 0
-3 15 -4 -22 5 -29 -6 -36 12 -30 -14 44 -20 38 -21 45 -27 39 -28 46 34 -40 35 -47 0
-3 15 -4 -22 5 -29 -6 -36 -12 -30 -14 44 -20 38 -21 45 -27 39 -28 46 34 -40 35 -47 0
-3 -15 4 -22 5 -29 -6 36 12 -30 -14 44 20 -38 -21 45 -27 -39 -28 -46 -34 40 35 -47 0
-3 15 -4 -22 5 -29 6 -36 -12 -30 -14 44 -20 38 -21 45 -27 39 -28 46 34 -40 35 -47 0
-3 15 -4 -22 5 -29 -6 -36 -12 30 -14 44 -20 38 -21 45 -27 39 -28 46 34 -40 35 -47 0
-3 15 -4 -22 5 -29 -6 36 12 -30 14 -44 -20 38 -21 45 -27 39 28 -46 -34 -40 -35 -47 0
-3 15 -4 -22 5 -29 -6 36 -12 -30 14 -44 -20 38 -21 45 -27 39 28 -46 -34 -40 -35 -47 0
3 -15 4 -22 5 -29 -6 36 12 -30 -14 44 20 -38 -21 45 -27 -39 28 -46 -34 40 35 -47 0
3 -15 4 -22 5 -29 -6 36 12 -30 -14 44 20 -38 -21 45 -27 -39 -28 -46 -34 40 35 -47 0
-3 15 4 -22 5 -29 -6 36 12 -30 -14 44 20 -38 -21 45 -27 -39 28 -46 -34 40 35 -47 0
-3 15 4 -22 5 -29 -6 36 12 -30 -14 44 20 -38 -21 45 -27 -39 -28 -46 -34 40 35 -47 0
-3 -15 4 -22 5 -29 -6 36 12 -30 -14 44 20 -38 -21 45 -27 39 28 -46 -34 40 -35 -47 0
-3 15 -4 -22 5 -29 -6 36 -12 30 14 -44 -20 38 -21 45 -27 39 28 -46 -34 -40 -35 -47 0
-3 -15 4 -22 5 -29 -6 36 12 -30 -14 44 20 -38 -21 45 -27 39 -28 -46 -34 40 -35 -47 0
-3 15 -4 -22 5 -29 -6 36 12 -30 14 -44 -20 38 -21 45 -27 39 28 -46 -34 -40 35 -47 0
-3 15 -4 -22 5 -29 -6 36 -12 -30 14 -44 -20 38 -21 45 -27 39 28 -46 -34 -40 35 -47 0
-3 15 -4 -22 5 -29 -6 36 -12 30 14 -44 -20 38 -21 45 -27 39 28 -46 -34 -40 35 -47 0
-3 15 -4 -22 5 -29 -6 36 12 -30 14 -44 -20 38 -21 45 -27 39 28 -46 -34 -40 -35 47 0
-3 15 -4 -22 5 -29 -6 36 -12 -30 14 -44 -20 38 -21 45 -27 39 28 -46 -34 -40 -35 47 0
3 -15 4 -22 5 -29 -6 36 12 -30 -14 44 20 -38 -21 45 -27 39 28 -46 -34 40 -35 -47 0
3 -15 4 -22 5 -29 -6 36 12 -30 -14 44 20 -38 -21 45 -27 39 -28 -46 -34 40 -35 -47 0
-3 15 4 -22 5 -29 -6 36 12 -30 -14 44 20 -38 -21 45 -27 39 28 -46 -34 40 -35 -47 0
-3 15 4 -22 5 -29 -6 36 12 -30 -14 44 20 -38 -21 45 -27 39 -28 -46 -34 40 -35 -47 0
-3 -15 4 -22 5 -29 -6 36 12 -30 -14 44 20 -38 -21 45 -27 39 28 -46 -34 40 -35 47 0
-3 15 -4 -22 5 -29 -6 36 -12 30 14 -44 -20 38 -21 45 -27 39 28 -46 -34 -40 -35 47 0
-3 15 -4 -22 5 -29 -6 36 12 -30 14 -44 -20 38 -21 45 -27 39 28 -46 34 -40 -35 -47 0
-3 15 -4 -22 5 -29 -6 36 -12 -30 14 -44 -20 38 -21 45 -27 39 28 -46 34 -40 -35 -47 0
-3 15 -4 -22 5 -29 -6 36 -12 30 14 -44 -20 38 21 -45 -27 39 28 -46 -34 40 35 -47 0
-3 -15 4 -22 5 -29 -6 36 12 -30 -14 44 20 -38 -21 45 -27 39 -28 -46 -34 40 -35 47 0
-3 15 -4 -22 5 -29 -6 36 -12 30 14 -44 -20 38 -21 45 -27 39 28 -46 34 -40 -35 -47 0
-3 15 -4 -22 5 -29 -6 36 12 -30 14 -44 -20 38 -21 45 -27 39 28 -46 34 -40 -35 47 0
-3 15 -4 -22 5 -29 -6 36 -12 -30 14 -44 -20 38 -21 45 -27 39 28 -46 34 -40 -35 47 0
-3 15 -4 -22 5 -29 -6 36 -12 30 14 -44 -20 38 -21 45 -27 39 28 -46 34 -40 -35 47 0
-3 15 -4 -22 5 -29 -6 36 -12 30 14 -44 -20 38 -21 45 -27 39 28 -46 -34 40 35 -47 0
3 -15 4 -22 5 -29 -6 36 12 -30 -14 44 20 -38 -21 45 -27 39 28 -46 -34 40 -35 47 0
3 -15 4 -22 5 -29 -6 36 12 -30 -14 44 20 -38 -21 45 -27 39 -28 -46 -34 40 -35 47 0
-3 15 4 -22 5 -29 -6 36 12 -30 -14 44 20 -38 -21 45 -27 39 28 -46 -34 40 -35 47 0
-3 15 4 -22 5 -29 -6 36 12 -30 -14 44 20 -38 -21 45 -27 39 -28 -46 -34 40 -35 47 0
-3 -15 4 -22 5 -29 -6 36 12 -30 -14 44 20 -38 -21 45 -27 39 28 -46 -34 40 35 -47 0
-3 15 -4 -22 5 -29 -6 -36 12 -30 14 -44 -20 38 -21 45 -27 39 28 -46 -34 -40 -35 -47 0
-3 -15 4 -22 5 -29 -6 36 12 -30 -14 44 20 -38 -21 45 -27 39 -28 -46 -34 40 35 -47 0
-3 15 -4 -22 5 -29 6 -36 12 -30 14 -44 -20 38 -21 45 -27 39 28 -46 -34 -40 -35 -47 0
-3 15 -4 -22 5 -29 -6 -36 -12 30 14 -44 -20 38 -21 45 -27 39 28 -46 -34 -40 -35 -47 0
-3 15 -4 -22 5 -29 6 -36 -12 -30 14 -44 -20 38 -21 45 -27 39 28 -46 -34 -40 -35 -47 0
-3 15 -4 -22 5 -29 6 -36 -12 30 14 -44 -20 38 -21 45 -27 39 28 -46 -34 -40 -35 -47 0
-3 15 -4 -22 5 -29 -6 -36 12 -30 14 -44 -20 38 -21 45 -27 39 28 -46 -34 -40 -35 47 0
3 -15 4 -22 5 -29 -6 36 12 -30 -14 44 20 -38 -21 45 -27 39 28 -46 -34 40 35 -47 0
3 -15 4 -22 5 -29 -6 36 12 -30 -14 44 20 -38 -21 45 -27 39 -28 -46 -34 40 35 -47 0
-3 15 4 -22 5 -29 -6 36 12 -30 -14 44 20 -38 -21 45 -27 39 28 -46 -34 40 35 -47 0
-3 15 4 -22 5 -29 -6 36 12 -30 -14 44 20 -38 -21 45 -27 39 -28 -46 -34 40 35 -47 0
-3 -15 4 -22 5 -29 -6 36 12 -30 -14 44 20 -38 -21 45 27 -39 28 -46 -34 40 -35 -47 0
-3 15 -4 -22 5 -29 6 -36 12 -30 14 -44 -20 38 -21 45 -27 39 28 -46 -34 -40 -35 47 0
-3 15 -4 -22 5 -29 -6 -36 -12 -30 14 -44 -20 38 -21 45 -27 39 28 -46 -34 -40 -35 47 0
-3 -15 4 -22 5 -29 -6 36 12 -30 -14 44 20 -38 -21 45 27 -39 -28 -46 -34 40 -35 -47 0
-3 15 -4 -22 5 -29 -6 -36 -12 30 14 -44 -20 38 -21 45 -27 39 28 -46 -34 -40 -35 47 0
-3 15 -4 -22 5 -29 6 -36 -12 -30 14 -44 -20 38 -21 45 -27 39 28 -46 -34 -40 -35 47 0
-3 15 -4 -22 5 -29 6 -36 -12 30 14 -44 -20 38 -21 45 -27 39 28 -46 -34 -40 -35 47 0
-3 15 -4 -22 5 -29 -6 -36 12 -30 14 -44 -20 38 -21 45 -27 39 28 -46 -34 -40 35 -47 0
3 -15 4 -22 5 -29 -6 36 12 -30 -14 44 20 -38 -21 45 27 -39 28 -46 -34 40 -35 -47 0
3 -15 4 -22 5 -29 -6 36 12 -30 -14 44 20 -38 -21 45 27 -39 -28 -46 -34 40 -35 -47 0
-3 15 4 -22 5 -29 -6 36 12 -30 -14 44 20 -38 -21 45 27 -39 28 -46 -34 40 -35 -47 0
-3 15 4 -22 5 -29 -6 36 12 -30 -14 44 20 -38 -21 45 27 -39 -28 -46 -34 40 -35 -47 0
-3 -15 4 -22 5 -29 -6 36 12 -30 -14 44 20 -38 -21 45 27 -39 28 -46 -34 40 -35 47 0
-3 15 -4 -22 5 -29 6 -36 12 -30 14 -44 -20 38 -21 45 -27 39 28 -46 -34 -40 35 -47 0
-3 15 -4 -22 5 -29 -6 -36 -12 -30 14 -44 -20 38 -21 45 -27 39 28 -46 -34 -40 35 -47 0
-3 -15 4 -22 5 -29 -6 36 12 -30 -14 44 20 -38 -21 45 27 -39 -28 -46 -34 40 -35 47 0
-3 15 -4 -22 5 -29 -6 -36 -12 30 14 -44 -20 38 -21 45 -27 39 28 -46 -34 -40 35 -47 0
-3 15 -4 -22 5 -29 6 -36 -12 -30 14 -44 -20 38 -21 45 -27 39 28 -46 -34 -40 35 -47 0
-3 15 -4 -22 5 -29 6 -36 -12 30 14 -44 -20 38 -21 45 -27 39 28 -46 -34 -40 35 -47 0
-3 15 -4 -22 5 -29 -6 -36 12 -30 14 -44 -20 38 -21 45 -27 39 28 -46 34 -40 -35 -47 0
-3 15 -4 -22 5 -29 6 -36 12 -30 14 -44 -20 38 -21 45 -27 39 28 -46 34 -40 -35 -47 0
-3 15 -4 -22 5 -29 -6 -36 -12 -30 14 -44 -20 38 -21 45 -27 39 28 -46 34 -40 -35 -47 0
3 -15 4 -22 5 -29 -6 36 12 -30 -14 44 20 -38 -21 45 27 -39 28 -46 -34 40 -35 47 0
3 -15 4 -22 5 -29 -6 36 12 -30 -14 44 20 -38 -21 45 27 -39 -28 -46 -34 40 -35 47 0
-3 15 4 -22 5 -29 -6 36 12 -30 -14 44 20 -38 -21 45 27 -39 28 -46 -34 40 -35 47 0
-3 15 4 -22 5 -29 -6 36 12 -30 -14 44 20 -38 -21 45 27 -39 -28 -46 -34 40 -35 47 0
-3 -15 4 -22 5 -29 -6 36 12 -30 -14 44 20 -38 -21 45 27 -39 28 -46 -34 40 35 -47 0
-3 15 -4 -22 5 -29 -6 -36 -12 30 14 -44 -20 38 -21 45 -27 39 28 -46 34 -40 -35 -47 0
-3 15 -4 -22 5 -29 6 -36 -12 -30 14 -44 -20 38 -21 45 -27 39 28 -46 34 -40 -35 -47 0
-3 -15 4 -22 5 -29 -6 36 12 -30 -14 44 20 -38 -21 45 27 -39 -28 -46 -34 40 35 -47 0
-3 15 -4 -22 5 -29 6 -36 -12 30 14 -44 -20 38 -21 45 -27 39 28 -46 34 -40 -35 -47 0
-3 15 -4 -22 5 -29 -6 -36 -12 -30 14 -44 -20 38 -21 45 -27 39 28 -46 34 -40 35 -47 0
-3 15 -4 -22 5 -29 -6 -36 -12 30 14 -44 -20 38 -21 45 -27 39 28 -46 34 -40 35 -47 0
-3 15 -4 -22 5 -29 6 -36 -12 -30 14 -44 -20 38 -21 45 -27 39 28 -46 34 -40 35 -47 0
-3 15 -4 -22 5 -29 -6 -36 12 -30 14 -44 -20 38 -21 45 -27 39 28 -46 34 -40 -35 47 0
3 -15 4 -22 5 -29 -6 36 12 -30 -14 44 20 -38 -21 45 27 -39 28 -46 -34 40 35 -47 0
3 -15 4 -22 5 -29 -6 36 12 -30 -14 44 20 -38 -21 45 27 -39 -28 -46 -34 40 35 -47 0
-3 15 4 -22 5 -29 -6 36 12 -30 -14 44 20 -38 -21 45 27 -39 28 -46 -34 40 35 -47 0
-3 15 4 -22 5 -29 -6 36 12 -30 -14 44 20 -38 -21 45 27 -39 -28 -46 -34 40 35 -47 0
3 -15 4 -22 5 -29 -6 36 12 -30 -14 44 -20 -38 -21 -45 -27 -39 28 -46 -34 -40 35 -47 0
-3 15 4 -22 5 -29 -6 36 12 -30 -14 44 -20 -38 -21 -45 -27 -39 28 -46 -34 -40 35 -47 0
3 -15 4 -22 5 -29 -6 36 12 -30 -14 44 -20 -38 -21 -45 -27 -39 28 -46 -34 -40 -35 47 0
-3 15 4 -22 5 -29 -6 36 12 -30 -14 44 -20 -38 -21 -45 -27 -39 28 -46 -34 -40 -35 47 0
3 -15 4 -22 5 -29 -6 36 12 -30 -14 44 -20 -38 -21 -45 -27 39 28 -46 -34 -40 -35 -47 0
-3 15 4 -22 5 -29 -6 36 12 -30 -14 44 -20 -38 -21 -45 -27 39 28 -46 -34 -40 -35 -47 0
-3 -15 4 -22 5 -29 -6 36 12 -30 -14 44 -20 -38 -21 -45 -27 39 28 -46 -34 -40 -35 47 0
3 -15 4 -22 5 -29 -6 36 12 -30 -14 44 -20 -38 -21 -45 -27 39 28 -46 -34 -40 -35 47 0
3 -15 4 -22 5 -29 -6 36 12 -30 -14 44 -20 -38 -21 -45 -27 39 -28 -46 -34 -40 -35 47 0
-3 15 4 -22 5 -29 -6 36 12 -30 -14 44 -20 -38 -21 -45 -27 39 28 -46 -34 -40 -35 47 0
-3 15 4 -22 5 -29 -6 36 12 -30 -14 44 -20 -38 -21 -45 -27 39 -28 -46 -34 -40 -35 47 0
-3 -15 4 -22 5 -29 -6 36 12 -30 -14 44 -20 -38 -21 -45 -27 39 28 -46 -34 -40 35 -47 0
-3 15 -4 -22 5 -29 6 -36 12 -30 14 -44 -20 38 -21 45 -27 39 28 -46 34 -40 -35 47 0
-3 15 -4 -22 5 -29 -6 -36 -12 -30 14 -44 -20 38 -21 45 -27 39 28 -46 34 -40 -35 47 0
-3 15 -4 -22 5 -29 6 -36 -12 -30 14 -44 -20 38 -21 45 -27 39 28 -46 34 -40 -35 47 0
3 -15 4 -22 5 -29 -6 36 12 -30 -14 44 -20 -38 -21 -45 -27 39 28 -46 -34 -40 35 -47 0
3 -15 4 -22 5 -29 -6 36 12 -30 -14 44 -20 -38 -21 -45 -27 39 -28 -46 -34 -40 35 -47 0
-3 15 4 -22 5 -29 -6 36 12 -30 -14 44 -20 -38 -21 -45 -27 39 28 -46 -34 -40 35 -47 0
-3 15 4 -22 5 -29 -6 36 12 -30 -14 44 -20 -38 -21 -45 -27 39 -28 -46 -34 -40 35 -47 0
3 -15 4 -22 5 -29 -6 36 12 -30 -14 44 -20 -38 -21 -45 27 -39 28 -46 -34 -40 -35 -47 0
-3 15 4 -22 5 -29 -6 36 12 -30 -14 44 -20 -38 -21 -45 27 -39 28 -46 -34 -40 -35 -47 0
-3 -15 4 -22 5 -29 -6 36 12 -30 -14 44 -20 -38 -21 -45 27 -39 28 -46 -34 -40 -35 47 0
-3 15 -4 -22 5 -29 -6 -36 -12 30 14 -44 -20 38 -21 45 -27 39 28 -46 34 -40 -35 47 0
-3 15 -4 -22 5 -29 6 -36 -12 30 14 -44 -20 38 -21 45 -27 39 28 -46 34 -40 -35 47 0
3 -15 4 -22 5 -29 -6 36 12 -30 -14 44 -20 -38 -21 -45 27 -39 28 -46 -34 -40 -35 47 0
3 -15 4 -22 5 -29 -6 36 12 -30 -14 44 -20 -38 -21 -45 27 -39 -28 -46 -34 -40 -35 47 0
-3 15 4 -22 5 -29 -6 36 12 -30 -14 44 -20 -38 -21 -45 27 -39 28 -46 -34 -40 -35 47 0
-3 15 4 -22 5 -29 -6 36 12 -30 -14 44 -20 -38 -21 -45 27 -39 -28 -46 -34 -40 -35 47 0
-3 -15 4 -22 5 -29 -6 36 12 -30 -14 44 -20 -38 -21 -45 27 -39 28 -46 -34 -40 35 -47 0
-3 15 -4 -22 5 -29 -6 36 12 -30 14 -44 -20 38 -21 45 -27 39 -28 -46 -34 -40 -35 -47 0
-3 15 -4 -22 5 -29 -6 36 -12 30 14 -44 -20 38 -21 45 -27 39 -28 -46 -34 -40 -35 -47 0
-3 15 -4 -22 5 -29 -6 36 12 -30 14 -44 -20 38 -21 45 -27 39 -28 -46 -34 -40 -35 47 0
-3 15 -4 -22 5 -29 -6 36 -12 -30 14 -44 -20 38 -21 45 -27 39 -28 -46 -34 -40 -35 47 0
3 -15 4 -22 5 -29 -6 36 12 -30 -14 44 -20 -38 -21 -45 27 -39 28 -46 -34 -40 35 -47 0
3 -15 4 -22 5 -29 -6 36 12 -30 -14 44 -20 -38 -21 -45 27 -39 -28 -46 -34 -40 35 -47 0
-3 15 4 -22 5 -29 -6 36 12 -30 -14 44 -20 -38 -21 -45 27 -39 28 -46 -34 -40 35 -47 0
-3 15 4 -22 5 -29 -6 36 12 -30 -14 44 -20 -38 -21 -45 27 -39 -28 -46 -34 -40 35 -47 0
3 -15 4 -22 5 -29 -6 36 12 -30 -14 44 -20 38 -21 -45 -27 -39 28 -46 -34 -40 -35 -47 0
-3 15 4 -22 5 -29 -6 36 12 -30 -14 44 -20 38 -21 -45 -27 -39 28 -46 -34 -40 -35 -47 0
-3 -15 4 -22 5 -29 -6 36 12 -30 -14 44 -20 38 -21 -45 -27 -39 28 -46 -34 -40 -35 47 0
-3 15 -4 -22 5 -29 -6 36 -12 30 14 -44 -20 38 -21 45 -27 39 -28 -46 -34 -40 -35 47 0
-3 15 -4 -22 5 -29 -6 36 12 -30 14 -44 -20 38 -21 45 -27 39 -28 46 -34 -40 -35 -47 0
-3 15 -4 -22 5 -29 -6 36 -12 -30 14 -44 -20 38 -21 45 -27 39 -28 46 -34 -40 -35 -47 0
3 -15 4 -22 5 -29 -6 36 12 -30 -14 44 -20 38 -21 -45 -27 -39 28 -46 -34 -40 -35 47 0
3 -15 4 -22 5 -29 -6 36 12 -30 -14 44 -20 38 -21 -45 -27 -39 -28 -46 -34 -40 -35 47 0
-3 15 4 -22 5 -29 -6 36 12 -30 -14 44 -20 38 -21 -45 -27 -39 28 -46 -34 -40 -35 47 0
-3 15 4 -22 5 -29 -6 36 12 -30 -14 44 -20 38 -21 -45 -27 -39 -28 -46 -34 -40 -35 47 0
-3 -15 4 -22 5 -29 -6 36 12 -30 -14 44 -20 38 -21 -45 -27 -39 28 -46 -34 -40 35 -47 0
-3 15 -4 -22 5 -29 -6 36 -12 30 14 -44 -20 38 -21 45 -27 39 -28 46 -34 -40 -35 -47 0
-3 15 -4 -22 5 -29 -6 36 12 -30 14 -44 -20 38 -21 45 -27 39 -28 46 -34 -40 -35 47 0
-3 15 -4 -22 5 -29 -6 36 -12 -30 14 -44 -20 38 -21 45 -27 39 -28 46 -34 -40 -35 47 0
3 -15 4 -22 5 -29 -6 36 12 -30 -14 44 -20 38 -21 -45 -27 -39 28 -46 -34 -40 35 -47 0
3 -15 4 -22 5 -29 -6 36 12 -30 -14 44 -20 38 -21 -45 -27 -39 -28 -46 -34 -40 35 -47 0
-3 15 4 -22 5 -29 -6 36 12 -30 -14 44 -20 38 -21 -45 -27 -39 28 -46 -34 -40 35 -47 0
-3 15 4 -22 5 -29 -6 36 12 -30 -14 44 -20 38 -21 -45 -27 -39 -28 -46 -34 -40 35 -47 0
-3 -15 4 -22 5 -29 -6 36 12 -30 -14 44 -20 38 -21 -45 -27 39 28 -46 -34 -40 -35 -47 0
-3 15 -4 -22 5 -29 -6 36 -12 30 14 -44 -20 38 -21 45 -27 39 -28 46 -34 -40 -35 47 0
-3 15 -4 -22 5 -29 -6 36 12 -30 14 -44 -20 38 -21 45 -27 39 -28 -46 -34 -40 35 -47 0
-3 15 -4 -22 5 -29 -6 36 -12 -30 14 -44 -20 38 -21 45 -27 39 -28 -46 -34 -40 35 -47 0
-3 15 -4 -22 5 -29 -6 36 -12 30 14 -44 -20 38 -21 45 -27 39 -28 -46 -34 -40 35 -47 0
3 -15 4 -22 5 -29 -6 36 12 -30 -14 44 -20 38 -21 -45 -27 39 28 -46 -34 -40 -35 -47 0
3 -15 4 -22 5 -29 -6 36 12 -30 -14 44 -20 38 -21 -45 -27 39 -28 -46 -34 -40 -35 -47 0
-3 15 4 -22 5 -29 -6 36 12 -30 -14 44 -20 38 -21 -45 -27 39 28 -46 -34 -40 -35 -47 0
-3 15 4 -22 5 -29 -6 36 12 -30 -14 44 -20 38 -21 -45 -27 39 -28 -46 -34 -40 -35 -47 0
-3 -15 4 -22 5 -29 -6 36 12 -30 -14 44 -20 38 -21 -45 -27 39 28 -46 -34 -40 -35 47 0
-3 15 -4 -22 5 -29 -6 36 12 -30 14 -44 -20 38 -21 45 -27 39 -28 46 -34 -40 35 -47 0
-3 15 -4 -22 5 -29 -6 36 -12 -30 14 -44 -20 38 -21 45 -27 39 -28 46 -34 -40 35 -47 0
-3 15 -4 -22 5 -29 -6 36 -12 30 14 -44 -20 38 -21 45 -27 39 -28 46 -34 -40 35 -47 0
-3 -15 4 -22 5 -29 -6 36 12 -30 -14 44 -20 38 -21 -45 -27 39 -28 -46 -34 -40 -35 47 0
-3 15 -4 -22 5 -29 6 -36 12 -30 14 -44 -20 38 -21 45 -27 39 -28 -46 -34 -40 -35 -47 0
-3 15 -4 -22 5 -29 6 -36 -12 30 14 -44 -20 38 -21 45 -27 39 -28 -46 -34 -40 -35 -47 0
-3 15 -4 -22 5 -29 -6 -36 12 -30 14 -44 -20 38 -21 45 -27 39 -28 -46 -34 -40 -35 47 0
-3 15 -4 -22 5 -29 6 -36 12 -30 14 -44 -20 38 -21 45 -27 39 -28 -46 -34 -40 -35 47 0
-3 15 -4 -22 5 -29 -6 -36 -12 30 14 -44 -20 38 -21 45 -27 39 -28 -46 -34 -40 -35 47 0
3 -15 4 -22 5 -29 -6 36 12 -30 -14 44 -20 38 -21 -45 -27 39 28 -46 -34 -40 -35 47 0
3 -15 4 -22 5 -29 -6 36 12 -30 -14 44 -20 38 -21 -45 -27 39 -28 -46 -34 -40 -35 47 0
-3 15 4 -22 5 -29 -6 36 12 -30 -14 44 -20 38 -21 -45 -27 39 28 -46 -34 -40 -35 47 0
-3 15 4 -22 5 -29 -6 36 12 -30 -14 44 -20 38 -21 -45 -27 39 -28 -46 -34 -40 -35 47 0
-3 -15 4 -22 5 -29 -6 36 12 -30 -14 44 -20 38 -21 -45 -27 39 28 -46 -34 -40 35 -47 0
-3 15 -4 -22 5 -29 6 -36 -12 -30 14 -44 -20 38 -21 45 -27 39 -28 -46 -34 -40 -35 47 0
-3 15 -4 -22 5 -29 6 -36 -12 30 14 -44 -20 38 -21 45 -27 39 -28 -46 -34 -40 -35 47 0
-3 15 -4 -22 5 -29 -6 -36 12 -30 14 -44 -20 38 -21 45 -27 39 -28 46 -34 -40 -35 -47 0
-3 15 -4 -22 5 -29 6 -36 12 -30 14 -44 -20 38 -21 45 -27 39 -28 46 -34 -40 -35 -47 0
-3 15 -4 -22 5 -29 -6 -36 -12 30 14 -44 -20 38 -21 45 -27 39 -28 46 -34 -40 -35 -47 0
-3 -15 4 -22 5 -29 -6 36 12 -30 -14 44 -20 38 -21 -45 -27 39 -28 -46 -34 -40 35 -47 0
-3 15 -4 -22 5 -29 6 -36 -12 -30 14 -44 -20 38 -21 45 -27 39 -28 46 -34 -40 -35 -47 0
-3 15 -4 -22 5 -29 6 -36 -12 30 14 -44 -20 38 -21 45 -27 39 -28 46 -34 -40 -35 -47 0
-3 15 -4 -22 5 -29 -6 -36 12 -30 14 -44 -20 38 -21 45 -27 39 -28 46 -34 -40 -35 47 0
-3 15 -4 -22 5 -29 6 -36 12 -30 14 -44 -20 38 -21 45 -27 39 -28 46 -34 -40 -35 47 0
3 -15 4 -22 5 -29 -6 36 12 -30 -14 44 -20 38 -21 -45 -27 39 28 -46 -34 -40 35 -47 0
3 -15 4 -22 5 -29 -6 36 12 -30 -14 44 -20 38 -21 -45 -27 39 -28 -46 -34 -40 35 -47 0
-3 15 4 -22 5 -29 -6 36 12 -30 -14 44 -20 38 -21 -45 -27 39 28 -46 -34 -40 35 -47 0
-3 15 4 -22 5 -29 -6 36 12 -30 -14 44 -20 38 -21 -45 -27 39 -28 -46 -34 -40 35 -47 0
-3 -15 4 -22 5 -29 -6 36 12 -30 -14 44 -20 38 -21 -45 27 -39 28 -46 -34 -40 -35 -47 0
-3 15 -4 -22 5 -29 -6 -36 -12 -30 14 -44 -20 38 -21 45 -27 39 -28 46 -34 -40 -35 47 0
-3 15 -4 -22 5 -29 -6 -36 -12 30 14 -44 -20 38 -21 45 -27 39 -28 46 -34 -40 -35 47 0
-3 15 -4 -22 5 -29 6 -36 -12 -30 14 -44 -20 38 -21 45 -27 39 -28 46 -34 -40 -35 47 0
3 -15 4 -22 5 -29 -6 36 12 -30 -14 44 -20 38 -21 -45 27 -39 28 -46 -34 -40 -35 -47 0
3 -15 4 -22 5 -29 -6 36 12 -30 -14 44 -20 38 -21 -45 27 -39 -28 -46 -34 -40 -35 -47 0
-3 15 4 -22 5 -29 -6 36 12 -30 -14 44 -20 38 -21 -45 27 -39 28 -46 -34 -40 -35 -47 0
-3 15 4 -22 5 -29 -6 36 12 -30 -14 44 -20 38 -21 -45 27 -39 -28 -46 -34 -40 -35 -47 0
-3 -15 4 -22 5 -29 -6 36 12 -30 -14 44 -20 38 -21 -45 27 -39 28 -46 -34 -40 -35 47 0
-3 15 -4 -22 5 -29 6 -36 -12 30 14 -44 -20 38 -21 45 -27 39 -28 46 -34 -40 -35 47 0
-3 15 -4 -22 5 -29 -6 -36 12 -30 14 -44 -20 38 -21 45 -27 39 -28 -46 -34 -40 35 -47 0
-3 15 -4 -22 5 -29 6 -36 12 -30 14 -44 -20 38 -21 45 -27 39 -28 -46 -34 -40 35 -47 0
-3 15 -4 -22 5 -29 -6 -36 -12 30 14 -44 -20 38 -21 45 -27 39 -28 -46 -34 -40 35 -47 0
-3 -15 4 -22 5 -29 -6 36 12 -30 -14 44 -20 38 -21 -45 27 -39 -28 -46 -34 -40 -35 47 0
-3 15 -4 -22 5 -29 6 -36 -12 -30 14 -44 -20 38 -21 45 -27 39 -28 -46 -34 -40 35 -47 0
-3 15 -4 -22 5 -29 6 -36 -12 30 14 -44 -20 38 -21 45 -27 39 -28 -46 -34 -40 35 -47 0
-3 15 -4 -22 5 -29 -6 -36 12 -30 14 -44 -20 38 -21 45 -27 39 -28 46 -34 -40 35 -47 0
-3 15 -4 -22 5 -29 6 -36 12 -30 14 -44 -20 38 -21 45 -27 39 -28 46 -34 -40 35 -47 0
-3 15 -4 -22 5 -29 -6 -36 -12 -30 14 -44 -20 38 -21 45 -27 39 -28 46 -34 -40 35 -47 0
3 -15 4 -22 5 -29 -6 36 12 -30 -14 44 -20 38 -21 -45 27 -39 28 -46 -34 -40 -35 47 0
3 -15 4 -22 5 -29 -6 36 12 -30 -14 44 -20 38 -21 -45 27 -39 -28 -46 -34 -40 -35 47 0
-3 15 4 -22 5 -29 -6 36 12 -30 -14 44 -20 38 -21 -45 27 -39 28 -46 -34 -40 -35 47 0
-3 15 4 -22 5 -29 -6 36 12 -30 -14 44 -20 38 -21 -45 27 -39 -28 -46 -34 -40 -35 47 0
-3 -15 4 -22 5 -29 -6 36 12 -30 -14 44 -20 38 -21 -45 27 -39 28 -46 -34 -40 35 -47 0
-3 15 -4 -22 5 -29 -6 -36 -12 30 14 -44 -20 38 -21 45 -27 39 -28 46 -34 -40 35 -47 0
-3 15 -4 -22 5 -29 6 -36 -12 -30 14 -44 -20 38 -21 45 -27 39 -28 46 -34 -40 35 -47 0
-3 15 -4 -22 5 -29 6 -36 -12 30 14 -44 -20 38 -21 45 -27 39 -28 46 -34 -40 35 -47 0
-3 -15 4 -22 5 -29 -6 36 12 -30 -14 44 -20 38 -21 -45 27 -39 -28 -46 -34 -40 35 -47 0
-3 15 -4 -22 5 -29 -6 36 12 -30 14 -44 -20 38 -21 45 -27 39 -28 -46 34 -40 -35 -47 0
-3 15 -4 -22 5 -29 -6 36 -12 -30 14 -44 -20 38 -21 45 -27 39 -28 -46 34 -40 -35 -47 0
-3 15 -4 -22 5 -29 -6 36 -12 30 14 -44 -20 38 -21 45 -27 39 -28 -46 34 -40 -35 -47 0
-3 15 -4 -22 5 -29 -6 36 12 -30 14 -44 -20 38 -21 45 -27 39 -28 46 34 -40 -35 -47 0
-3 15 -4 -22 5 -29 -6 36 -12 -30 14 -44 -20 38 -21 45 -27 39 -28 46 34 -40 -35 -47 0
-3 15 -4 -22 5 -29 -6 36 -12 30 14 -44 -20 38 -21 45 -27 39 -28 46 34 -40 -35 -47 0
3 -15 4 -22 5 -29 -6 36 12 -30 -14 44 -20 38 -21 -45 27 -39 28 -46 -34 -40 35 -47 0
3 -15 4 -22 5 -29 -6 36 12 -30 -14 44 -20 38 -21 -45 27 -39 -28 -46 -34 -40 35 -47 0
-3 15 4 -22 5 -29 -6 36 12 -30 -14 44 -20 38 -21 -45 27 -39 28 -46 -34 -40 35 -47 0
-3 15 4 -22 5 -29 -6 36 12 -30 -14 44 -20 38 -21 -45 27 -39 -28 -46 -34 -40 35 -47 0
3 -15 4 -22 5 -29 -6 36 12 -30 -14 44 -20 -38 -21 -45 -27 -39 28 -46 -34 40 -35 -47 0
-3 15 4 -22 5 -29 -6 36 12 -30 -14 44 -20 -38 -21 -45 -27 -39 28 -46 -34 40 -35 -47 0
-3 -15 4 -22 5 -29 -6 36 12 -30 -14 44 -20 -38 -21 -45 -27 -39 28 -46 -34 40 -35 47 0
-3 15 -4 -22 5 -29 -6 36 12 -30 14 -44 -20 38 -21 45 -27 39 -28 -46 34 -40 35 -47 0
-3 15 -4 -22 5 -29 -6 36 -12 -30 14 -44 -20 38 -21 45 -27 39 -28 -46 34 -40 35 -47 0
-3 15 -4 -22 5 -29 -6 -36 12 -30 14 -44 20 -38 -21 45 -27 39 28 -46 34 -40 35 -47 0
-3 15 -4 -22 5 -29 -6 36 12 -30 14 -44 20 -38 -21 45 27 -39 28 -46 34 -40 -35 47 0
-3 15 -4 -22 5 -29 -6 36 12 -30 -14 44 20 -38 -21 45 27 -39 28 -46 34 -40 -35 47 0
-3 15 -4 -22 5 -29 -6 36 12 -30 -14 44 20 -38 21 -45 27 -39 28 -46 34 -40 -35 47 0
-3 15 4 -22 5 -29 -6 36 12 -30 -14 44 20 -38 21 -45 27 -39 28 -46 34 -40 -35 47 0
-3 15 -4 -22 -5 29 -6 36 12 -30 -14 44 20 -38 21 -45 27 -39 28 -46 34 -40 -35 47 0
-3 15 4 -22 -5 29 -6 36 12 -30 -14 44 20 -38 21 -45 27 -39 28 -46 34 -40 -35 47 0
-3 15 -4 -22 -5 -29 -6 36 12 -30 -14 44 20 -38 21 -45 27 -39 28 -46 34 -40 -35 47 0
3 -15 -4 -22 5 -29 -6 36 12 -30 -14 44 20 -38 21 -45 27 -39 28 -46 34 -40 -35 47 0
-3 15 -4 -22 5 -29 6 -36 12 -30 -14 44 20 -38 21 -45 27 -39 28 -46 34 -40 -35 47 0
-3 15 -4 -22 5 -29 -6 36 12 -30 -14 44 20 -38 21 -45 27 -39 28 -46 -34 40 -35 47 0
3 -15 4 -22 5 -29 -6 36 12 -30 -14 44 -20 -38 -21 -45 -27 -39 28 -46 -34 40 -35 47 0
3 -15 4 -22 5 -29 -6 36 12 -30 -14 44 -20 -38 -21 -45 -27 -39 -28 -46 -34 40 -35 47 0
-3 15 4 -22 5 -29 -6 36 12 -30 -14 44 -20 -38 -21 -45 -27 -39 28 -46 -34 40 -35 47 0
-3 15 4 -22 5 -29 -6 36 12 -30 -14 44 -20 -38 -21 -45 -27 -39 -28 -46 -34 40 -35 47 0
-3 -15 4 -22 5 -29 -6 36 12 -30 -14 44 -20 -38 -21 -45 -27 -39 28 -46 -34 40 35 -47 0
3 -15 4 -22 5 -29 -6 36 12 -30 -14 44 -20 -38 -21 -45 -27 -39 28 -46 -34 40 35 -47 0
3 -15 4 -22 5 -29 -6 36 12 -30 -14 44 -20 -38 -21 -45 -27 -39 -28 -46 -34 40 35 -47 0
-3 15 4 -22 5 -29 -6 36 12 -30 -14 44 -20 -38 -21 -45 -27 -39 28 -46 -34 40 35 -47 0
-3 15 4 -22 5 -29 -6 36 12 -30 -14 44 -20 -38 -21 -45 -27 -39 -28 -46 -34 40 35 -47 0
-3 -15 4 -22 5 -29 -6 36 12 -30 -14 44 -20 -38 -21 -45 -27 39 28 -46 -34 40 -35 -47 0
3 -15 4 -22 5 -29 -6 36 12 -30 -14 44 -20 -38 -21 -45 -27 39 28 -46 -34 40 -35 -47 0
3 -15 4 -22 5 -29 -6 36 12 -30 -14 44 -20 -38 -21 -45 -27 39 -28 -46 -34 40 -35 -47 0
-3 15 4 -22 5 -29 -6 36 12 -30 -14 44 -20 -38 -21 -45 -27 39 28 -46 -34 40 -35 -47 0
-3 15 4 -22 5 -29 -6 36 12 -30 -14 44 -20 -38 -21 -45 -27 39 -28 -46 -34 40 -35 -47 0
-3 -15 4 -22 5 -29 -6 36 12 -30 -14 44 -20 -38 -21 -45 -27 39 28 -46 -34 40 -35 47 0
-3 15 -4 -22 5 -29 -6 36 -12 30 14 -44 -20 38 -21 45 -27 39 -28 -46 34 -40 35 -47 0
-3 15 -4 -22 5 -29 -6 36 -12 -30 14 -44 -20 38 -21 45 -27 39 -28 46 34 -40 35 -47 0
-3 15 -4 -22 5 -29 -6 -36 12 -30 14 -44 -20 38 -21 45 -27 39 -28 -46 34 -40 -35 -47 0
-3 -15 4 -22 5 -29 -6 36 12 -30 -14 44 -20 -38 -21 -45 -27 39 -28 -46 -34 40 -35 47 0
-3 15 -4 -22 5 -29 6 -36 12 -30 14 -44 -20 38 -21 45 -27 39 -28 -46 34 -40 -35 -47 0
-3 15 -4 -22 5 -29 -6 -36 -12 30 14 -44 -20 38 -21 45 -27 39 -28 -46 34 -40 -35 -47 0
-3 15 -4 -22 5 -29 6 -36 -12 -30 14 -44 -20 38 -21 45 -27 39 -28 -46 34 -40 -35 -47 0
-3 15 -4 -22 5 -29 6 -36 -12 30 14 -44 -20 38 -21 45 -27 39 -28 -46 34 -40 -35 -47 0
-3 15 -4 -22 5 -29 -6 -36 12 -30 14 -44 -20 38 -21 45 -27 39 -28 -46 34 -40 35 -47 0
-3 15 -4 -22 5 -29 6 -36 12 -30 14 -44 -20 38 -21 45 -27 39 -28 -46 34 -40 35 -47 0
-3 15 -4 -22 5 -29 -6 -36 -12 -30 14 -44 -20 38 -21 45 -27 39 -28 -46 34 -40 35 -47 0
3 -15 4 -22 5 -29 -6 36 12 -30 -14 44 -20 -38 -21 -45 -27 39 28 -46 -34 40 -35 47 0
3 -15 4 -22 5 -29 -6 36 12 -30 -14 44 -20 -38 -21 -45 -27 39 -28 -46 -34 40 -35 47 0
-3 15 4 -22 5 -29 -6 36 12 -30 -14 44 -20 -38 -21 -45 -27 39 28 -46 -34 40 -35 47 0
-3 15 4 -22 5 -29 -6 36 12 -30 -14 44 -20 -38 -21 -45 -27 39 -28 -46 -34 40 -35 47 0
-3 -15 4 -22 5 -29 -6 36 12 -30 -14 44 -20 -38 -21 -45 -27 39 28 -46 -34 40 35 -47 0
-3 15 -4 -22 5 -29 -6 -36 -12 30 14 -44 -20 38 -21 45 -27 39 -28 -46 34 -40 35 -47 0
-3 15 -4 -22 5 -29 6 -36 -12 -30 14 -44 -20 38 -21 45 -27 39 -28 -46 34 -40 35 -47 0
-3 15 -4 -22 5 -29 6 -36 -12 30 14 -44 -20 38 -21 45 -27 39 -28 -46 34 -40 35 -47 0
-3 15 -4 -22 5 -29 -6 -36 12 -30 14 -44 -20 38 -21 45 -27 39 -28 46 34 -40 -35 -47 0
-3 -15 4 -22 5 -29 -6 36 12 -30 -14 44 -20 -38 -21 -45 -27 39 -28 -46 -34 40 35 -47 0
-3 15 -4 -22 5 -29 6 -36 12 -30 14 -44 -20 38 -21 45 -27 39 -28 46 34 -40 -35 -47 0
-3 15 -4 -22 5 -29 -6 -36 -12 -30 14 -44 -20 38 -21 45 -27 39 -28 46 34 -40 -35 -47 0
-3 15 -4 -22 5 -29 -6 -36 -12 30 14 -44 -20 38 -21 45 -27 39 -28 46 34 -40 -35 -47 0
-3 15 -4 -22 5 -29 6 -36 -12 -30 14 -44 -20 38 -21 45 -27 39 -28 46 34 -40 -35 -47 0
-3 15 -4 -22 5 -29 6 -36 -12 30 14 -44 -20 38 -21 45 -27 39 -28 46 34 -40 -35 -47 0
3 -15 4 -22 5 -29 -6 36 12 -30 -14 44 -20 -38 -21 -45 -27 39 28 -46 -34 40 35 -47 0
3 -15 4 -22 5 -29 -6 36 12 -30 -14 44 -20 -38 -21 -45 -27 39 -28 -46 -34 40 35 -47 0
-3 15 4 -22 5 -29 -6 36 12 -30 -14 44 -20 -38 -21 -45 -27 39 28 -46 -34 40 35 -47 0
-3 15 4 -22 5 -29 -6 36 12 -30 -14 44 -20 -38 -21 -45 -27 39 -28 -46 -34 40 35 -47 0
-3 -15 4 -22 5 -29 -6 36 12 -30 -14 44 -20 -38 -21 -45 27 -39 28 -46 -34 40 -35 -47 0
-3 15 -4 -22 5 -29 -6 -36 12 -30 14 -44 -20 38 -21 45 -27 39 -28 46 34 -40 35 -47 0
-3 15 -4 -22 5 -29 -6 -36 -12 -30 14 -44 -20 38 -21 45 -27 39 -28 46 34 -40 35 -47 0
-3 15 -4 -22 5 -29 -6 -36 -12 30 14 -44 -20 38 -21 45 -27 39 -28 46 34 -40 35 -47 0
-3 15 -4 -22 5 -29 6 -36 -12 -30 14 -44 -20 38 -21 45 -27 39 -28 46 34 -40 35 -47 0
3 -15 4 -22 5 -29 -6 36 12 -30 -14 44 -20 -38 -21 -45 27 -39 28 -46 -34 40 -35 -47 0
3 -15 4 -22 5 -29 -6 36 12 -30 -14 44 -20 -38 -21 -45 27 -39 -28 -46 -34 40 -35 -47 0
-3 15 4 -22 5 -29 -6 36 12 -30 -14 44 -20 -38 -21 -45 27 -39 28 -46 -34 40 -35 -47 0
-3 15 4 -22 5 -29 -6 36 12 -30 -14 44 -20 -38 -21 -45 27 -39 -28 -46 -34 40 -35 -47 0
-3 -15 4 -22 5 -29 -6 36 12 -30 -14 44 -20 -38 -21 -45 27 -39 28 -46 -34 40 -35 47 0
-3 15 -4 -22 5 -29 -6 36 12 -30 14 -44 -20 38 -21 45 -27 39 -28 -46 34 -40 -35 47 0
-3 15 -4 -22 5 -29 -6 36 -12 -30 14 -44 -20 38 -21 45 -27 39 -28 -46 34 -40 -35 47 0
-3 15 -4 -22 5 -29 -6 36 -12 30 14 -44 -20 38 -21 45 -27 39 -28 -46 34 -40 -35 47 0
-3 -15 4 -22 5 -29 -6 36 12 -30 -14 44 -20 -38 -21 -45 27 -39 -28 -46 -34 40 -35 47 0
-3 15 -4 -22 5 -29 -6 36 12 -30 14 -44 -20 38 -21 45 -27 39 -28 46 34 -40 -35 47 0
-3 15 -4 -22 5 -29 -6 36 -12 -30 14 -44 -20 38 -21 45 -27 39 -28 46 34 -40 -35 47 0
-3 15 -4 -22 5 -29 -6 36 -12 30 14 -44 -20 38 -21 45 -27 39 -28 46 34 -40 -35 47 0
-3 15 -4 -22 5 -29 -6 -36 12 -30 14 -44 -20 38 -21 45 -27 39 -28 -46 34 -40 -35 47 0
-3 15 -4 -22 5 -29 6 -36 12 -30 14 -44 -20 38 -21 45 -27 39 -28 -46 34 -40 -35 47 0
3 -15 4 -22 5 -29 -6 36 12 -30 -14 44 -20 -38 -21 -45 27 -39 28 -46 -34 40 -35 47 0
3 -15 4 -22 5 -29 -6 36 12 -30 -14 44 -20 -38 -21 -45 27 -39 -28 -46 -34 40 -35 47 0
-3 15 4 -22 5 -29 -6 36 12 -30 -14 44 -20 -38 -21 -45 27 -39 28 -46 -34 40 -35 47 0
-3 15 4 -22 5 -29 -6 36 12 -30 -14 44 -20 -38 -21 -45 27 -39 -28 -46 -34 40 -35 47 0
-3 -15 4 -22 5 -29 -6 36 12 -30 -14 44 -20 -38 -21 -45 27 -39 28 -46 -34 40 35 -47 0
-3 15 -4 -22 5 -29 -6 -36 -12 -30 14 -44 -20 38 -21 45 -27 39 -28 -46 34 -40 -35 47 0
-3 15 -4 -22 5 -29 -6 -36 -12 30 14 -44 -20 38 -21 45 -27 39 -28 -46 34 -40 -35 47 0
-3 15 -4 -22 5 -29 6 -36 -12 -30 14 -44 -20 38 -21 45 -27 39 -28 -46 34 -40 -35 47 0
-3 -15 4 -22 5 -29 -6 36 12 -30 -14 44 -20 -38 -21 -45 27 -39 -28 -46 -34 40 35 -47 0
-3 15 -4 -22 5 -29 6 -36 -12 30 14 -44 -20 38 -21 45 -27 39 -28 -46 34 -40 -35 47 0
-3 15 -4 -22 5 -29 -6 -36 12 -30 14 -44 -20 38 -21 45 -27 39 -28 46 34 -40 -35 47 0
-3 15 -4 -22 5 -29 6 -36 12 -30 14 -44 -20 38 -21 45 -27 39 -28 46 34 -40 -35 47 0
-3 15 -4 -22 5 -29 -6 -36 -12 -30 14 -44 -20 38 -21 45 -27 39 -28 46 34 -40 -35 47 0
3 -15 4 -22 5 -29 -6 36 12 -30 -14 44 -20 -38 -21 -45 27 -39 28 -46 -34 40 35 -47 0
3 -15 4 -22 5 -29 -6 36 12 -30 -14 44 -20 -38 -21 -45 27 -39 -28 -46 -34 40 35 -47 0
-3 15 4 -22 5 -29 -6 36 12 -30 -14 44 -20 -38 -21 -45 27 -39 28 -46 -34 40 35 -47 0
-3 15 4 -22 5 -29 -6 36 12 -30 -14 44 -20 -38 -21 -45 27 -39 -28 -46 -34 40 35 -47 0
-3 -15 4 -22 5 -29 -6 36 12 -30 -14 44 -20 38 -21 -45 -27 -39 28 -46 -34 40 -35 -47 0
-3 15 -4 -22 5 -29 -6 -36 -12 30 14 -44 -20 38 -21 45 -27 39 -28 46 34 -40 -35 47 0
-3 15 -4 -22 5 -29 6 -36 -12 -30 14 -44 -20 38 -21 45 -27 39 -28 46 34 -40 -35 47 0
-3 15 -4 -22 5 -29 6 -36 -12 30 14 -44 -20 38 -21 45 -27 39 -28 46 34 -40 -35 47 0
3 -15 4 -22 5 -29 -6 36 12 -30 -14 44 -20 38 -21 -45 -27 -39 28 -46 -34 40 -35 -47 0
3 -15 4 -22 5 -29 -6 36 12 -30 -14 44 -20 38 -21 -45 -27 -39 -28 -46 -34 40 -35 -47 0
-3 15 4 -22 5 -29 -6 36 12 -30 -14 44 -20 38 -21 -45 -27 -39 28 -46 -34 40 -35 -47 0
-3 15 4 -22 5 -29 -6 36 12 -30 -14 44 -20 38 -21 -45 -27 -39 -28 -46 -34 40 -35 -47 0
-3 -15 4 -22 5 -29 -6 36 12 -30 -14 44 -20 38 -21 -45 -27 -39 28 -46 -34 40 -35 47 0
-3 15 -4 -22 5 -29 -6 36 12 -30 -14 -44 -20 38 -21 45 -27 39 28 -46 -34 40 -35 -47 0
-3 15 -4 -22 5 -29 -6 36 -12 -30 -14 -44 -20 38 -21 45 -27 39 28 -46 -34 40 -35 -47 0
-3 15 -4 -22 5 -29 -6 36 -12 30 -14 -44 -20 38 -21 45 -27 39 28 -46 -34 40 -35 -47 0
-3 15 -4 -22 5 -29 -6 36 12 -30 -14 44 -20 38 -21 45 -27 39 28 -46 -34 40 -35 -47 0
-3 -15 4 -22 5 -29 -6 36 12 -30 -14 44 -20 38 -21 -45 -27 -39 -28 -46 -34 40 -35 47 0
-3 15 -4 -22 5 -29 -6 36 -12 -30 -14 44 -20 38 -21 45 -27 39 28 -46 -34 40 -35 -47 0
-3 15 -4 -22 5 -29 -6 36 -12 30 -14 44 -20 38 -21 45 -27 39 28 -46 -34 40 -35 -47 0
-3 15 -4 -22 5 -29 -6 36 12 -30 14 -44 -20 38 -21 45 -27 39 28 -46 -34 40 -35 -47 0
-3 15 -4 -22 5 -29 -6 36 -12 -30 14 -44 -20 38 -21 45 -27 39 28 -46 -34 40 -35 -47 0
3 -15 4 -22 5 -29 -6 36 12 -30 -14 44 -20 38 -21 -45 -27 -39 28 -46 -34 40 -35 47 0
3 -15 4 -22 5 -29 -6 36 12 -30 -14 44 -20 38 -21 -45 -27 -39 -28 -46 -34 40 -35 47 0
-3 15 4 -22 5 -29 -6 36 12 -30 -14 44 -20 38 -21 -45 -27 -39 28 -46 -34 40 -35 47 0
-3 15 4 -22 5 -29 -6 36 12 -30 -14 44 -20 38 -21 -45 -27 -39 -28 -46 -34 40 -35 47 0
-3 -15 4 -22 5 -29 -6 36 12 -30 -14 44 -20 38 -21 -45 -27 -39 28 -46 -34 40 35 -47 0
-3 15 -4 -22 5 -29 -6 36 -12 30 14 -44 -20 38 -21 45 -27 39 28 -46 -34 40 -35 -47 0
-3 15 -4 -22 5 -29 -6 36 12 -30 -14 -44 -20 38 -21 45 -27 39 -28 -46 -34 40 -35 -47 0
-3 -15 4 -22 5 -29 -6 36 12 -30 -14 44 -20 38 -21 -45 -27 -39 -28 -46 -34 40 35 -47 0
-3 15 -4 -22 5 -29 -6 36 -12 30 -14 -44 -20 38 -21 45 -27 39 -28 -46 -34 40 -35 -47 0
-3 15 -4 -22 5 -29 -6 36 12 -30 -14 44 -20 38 -21 45 -27 39 -28 -46 -34 40 -35 -47 0
-3 15 -4 -22 5 -29 -6 36 -12 -30 -14 44 -20 38 -21 45 -27 39 -28 -46 -34 40 -35 -47 0
-3 15 -4 -22 5 -29 -6 36 -12 30 -14 44 -20 38 -21 45 -27 39 -28 -46 -34 40 -35 -47 0
3 -15 4 -22 5 -29 -6 36 12 -30 -14 44 -20 38 -21 -45 -27 -39 28 -46 -34 40 35 -47 0
3 -15 4 -22 5 -29 -6 36 12 -30 -14 44 -20 38 -21 -45 -27 -39 -28 -46 -34 40 35 -47 0
-3 15 4 -22 5 -29 -6 36 12 -30 -14 44 -20 38 -21 -45 -27 -39 28 -46 -34 40 35 -47 0
-3 15 4 -22 5 -29 -6 36 12 -30 -14 44 -20 38 -21 -45 -27 -39 -28 -46 -34 40 35 -47 0
-3 -15 4 -22 5 -29 -6 36 12 -30 -14 44 -20 38 -21 -45 -27 39 28 -46 -34 40 -35 -47 0
-3 15 -4 -22 5 -29 -6 36 12 -30 14 -44 -20 38 -21 45 -27 39 -28 -46 -34 40 -35 -47 0
-3 15 -4 -22 5 -29 -6 36 -12 -30 14 -44 -20 38 -21 45 -27 39 -28 -46 -34 40 -35 -47 0
-3 15 -4 -22 5 -29 -6 36 -12 30 14 -44 -20 38 -21 45 -27 39 -28 -46 -34 40 -35 -47 0
-3 -15 4 -22 5 -29 -6 36 12 -30 -14 44 -20 38 -21 -45 -27 39 -28 -46 -34 40 -35 -47 0
-3 15 -4 -22 5 -29 -6 36 12 -30 -14 -44 -20 38 -21 45 -27 39 28 -46 -34 40 -35 47 0
-3 15 -4 -22 5 -29 -6 36 -12 -30 -14 -44 -20 38 -21 45 -27 39 28 -46 -34 40 -35 47 0
-3 15 -4 -22 5 -29 -6 36 -12 30 -14 -44 -20 38 -21 45 -27 39 28 -46 -34 40 -35 47 0
-3 15 -4 -22 5 -29 -6 36 12 -30 -14 -44 -20 38 -21 45 -27 39 -28 -46 -34 40 -35 47 0
3 -15 4 -22 5 -29 -6 36 12 -30 -14 44 -20 38 -21 -45 -27 39 28 -46 -34 40 -35 -47 0
3 -15 4 -22 5 -29 -6 36 12 -30 -14 44 -20 38 -21 -45 -27 39 -28 -46 -34 40 -35 -47 0
-3 15 4 -22 5 -29 -6 36 12 -30 -14 44 -20 38 -21 -45 -27 39 28 -46 -34 40 -35 -47 0
-3 15 4 -22 5 -29 -6 36 12 -30 -14 44 -20 38 -21 -45 -27 39 -28 -46 -34 40 -35 -47 0
-3 -15 4 -22 5 -29 -6 36 12 -30 -14 44 -20 38 -21 -45 -27 39 28 -46 -34 40 -35 47 0
-3 15 -4 -22 5 -29 -6 36 -12 -30 -14 -44 -20 38 -21 45 -27 39 -28 -46 -34 40 -35 47 0
-3 15 -4 -22 5 -29 -6 36 -12 30 -14 -44 -20 38 -21 45 -27 39 -28 -46 -34 40 -35 47 0
-3 -15 4 -22 5 -29 -6 36 12 -30 -14 44 -20 38 -21 -45 -27 39 -28 -46 -34 40 -35 47 0
-3 15 -4 -22 5 -29 -6 36 12 -30 -14 44 -20 38 -21 45 -27 39 28 -46 -34 40 -35 47 0
-3 15 -4 -22 5 -29 -6 36 -12 -30 -14 44 -20 38 -21 45 -27 39 28 -46 -34 40 -35 47 0
-3 15 -4 -22 5 -29 -6 36 -12 30 -14 44 -20 38 -21 45 -27 39 28 -46 -34 40 -35 47 0
-3 15 -4 -22 5 -29 -6 36 12 -30 -14 44 -20 38 -21 45 -27 39 -28 -46 -34 40 -35 47 0
3 -15 4 -22 5 -29 -6 36 12 -30 -14 44 -20 38 -21 -45 -27 39 28 -46 -34 40 -35 47 0
3 -15 4 -22 5 -29 -6 36 12 -30 -14 44 -20 38 -21 -45 -27 39 -28 -46 -34 40 -35 47 0
-3 15 4 -22 5 -29 -6 36 12 -30 -14 44 -20 38 -21 -45 -27 39 28 -46 -34 40 -35 47 0
-3 15 4 -22 5 -29 -6 36 12 -30 -14 44 -20 38 -21 -45 -27 39 -28 -46 -34 40 -35 47 0
-3 -15 4 -22 5 -29 -6 36 12 -30 -14 44 -20 38 -21 -45 -27 39 28 -46 -34 40 35 -47 0
-3 15 -4 -22 5 -29 -6 36 -12 -30 -14 44 -20 38 -21 45 -27 39 -28 -46 -34 40 -35 47 0
-3 15 -4 -22 5 -29 -6 36 -12 30 -14 44 -20 38 -21 45 -27 39 -28 -46 -34 40 -35 47 0
-3 15 -4 -22 5 -29 -6 36 12 -30 14 -44 -20 38 -21 45 -27 39 28 -46 -34 40 -35 47 0
-3 15 -4 -22 5 -29 -6 36 -12 -30 14 -44 -20 38 -21 45 -27 39 28 -46 -34 40 -35 47 0
-3 -15 4 -22 5 -29 -6 36 12 -30 -14 44 -20 38 -21 -45 -27 39 -28 -46 -34 40 35 -47 0
-3 15 -4 -22 5 -29 -6 36 -12 30 14 -44 -20 38 -21 45 -27 39 28 -46 -34 40 -35 47 0
-3 15 -4 -22 5 -29 -6 36 12 -30 14 -44 -20 38 -21 45 -27 39 -28 -46 -34 40 -35 47 0
-3 15 -4 -22 5 -29 -6 36 -12 -30 14 -44 -20 38 -21 45 -27 39 -28 -46 -34 40 -35 47 0
-3 15 -4 -22 5 -29 -6 36 -12 30 14 -44 -20 38 -21 45 -27 39 -28 -46 -34 40 -35 47 0
-3 15 -4 -22 5 -29 -6 -36 12 -30 -14 -44 -20 38 -21 45 -27 39 28 -46 -34 40 -35 -47 0
3 -15 4 -22 5 -29 -6 36 12 -30 -14 44 -20 38 -21 -45 -27 39 28 -46 -34 40 35 -47 0
3 -15 4 -22 5 -29 -6 36 12 -30 -14 44 -20 38 -21 -45 -27 39 -28 -46 -34 40 35 -47 0
-3 15 4 -22 5 -29 -6 36 12 -30 -14 44 -20 38 -21 -45 -27 39 28 -46 -34 40 35 -47 0
-3 15 4 -22 5 -29 -6 36 12 -30 -14 44 -20 38 -21 -45 -27 39 -28 -46 -34 40 35 -47 0
-3 -15 4 -22 5 -29 -6 36 12 -30 -14 44 -20 38 -21 -45 27 -39 28 -46 -34 40 -35 -47 0
-3 15 -4 -22 5 -29 6 -36 12 -30 -14 -44 -20 38 -21 45 -27 39 28 -46 -34 40 -35 -47 0
-3 15 -4 -22 5 -29 -6 -36 -12 30 -14 -44 -20 38 -21 45 -27 39 28 -46 -34 40 -35 -47 0
-3 -15 4 -22 5 -29 -6 36 12 -30 -14 44 -20 38 -21 -45 27 -39 -28 -46 -34 40 -35 -47 0
-3 15 -4 -22 5 -29 6 -36 -12 -30 -14 -44 -20 38 -21 45 -27 39 28 -46 -34 40 -35 -47 0
-3 15 -4 -22 5 -29 6 -36 -12 30 -14 -44 -20 38 -21 45 -27 39 28 -46 -34 40 -35 -47 0
-3 15 -4 -22 5 -29 6 -36 12 -30 -14 -44 -20 38 -21 45 -27 39 -28 -46 -34 40 -35 -47 0
-3 15 -4 -22 5 -29 6 -36 -12 30 -14 -44 -20 38 -21 45 -27 39 -28 -46 -34 40 -35 -47 0
-3 15 -4 -22 5 -29 -6 -36 12 -30 -14 -44 -20 38 -21 45 -27 39 28 -46 -34 40 -35 47 0
3 -15 4 -22 5 -29 -6 36 12 -30 -14 44 -20 38 -21 -45 27 -39 28 -46 -34 40 -35 -47 0
3 -15 4 -22 5 -29 -6 36 12 -30 -14 44 -20 38 -21 -45 27 -39 -28 -46 -34 40 -35 -47 0
-3 15 4 -22 5 -29 -6 36 12 -30 -14 44 -20 38 -21 -45 27 -39 28 -46 -34 40 -35 -47 0
-3 15 4 -22 5 -29 -6 36 12 -30 -14 44 -20 38 -21 -45 27 -39 -28 -46 -34 40 -35 -47 0
-3 -15 4 -22 5 -29 -6 36 12 -30 -14 44 -20 38 -21 -45 27 -39 28 -46 -34 40 -35 47 0
-3 15 -4 -22 5 -29 6 -36 12 -30 -14 -44 -20 38 -21 45 -27 39 28 -46 -34 40 -35 47 0
-3 15 -4 -22 5 -29 -6 -36 -12 -30 -14 -44 -20 38 -21 45 -27 39 28 -46 -34 40 -35 47 0
-3 -15 4 -22 5 -29 -6 36 12 -30 -14 44 -20 38 -21 -45 27 -39 -28 -46 -34 40 -35 47 0
-3 15 -4 -22 5 -29 -6 -36 -12 30 -14 -44 -20 38 -21 45 -27 39 28 -46 -34 40 -35 47 0
-3 15 -4 -22 5 -29 6 -36 -12 -30 -14 -44 -20 38 -21 45 -27 39 28 -46 -34 40 -35 47 0
-3 15 -4 -22 5 -29 6 -36 -12 30 -14 -44 -20 38 -21 45 -27 39 28 -46 -34 40 -35 47 0
-3 15 -4 -22 5 -29 -6 -36 12 -30 -14 -44 -20 38 -21 45 -27 39 -28 -46 -34 40 -35 47 0
3 -15 4 -22 5 -29 -6 36 12 -30 -14 44 -20 38 -21 -45 27 -39 28 -46 -34 40 -35 47 0
3 -15 4 -22 5 -29 -6 36 12 -30 -14 44 -20 38 -21 -45 27 -39 -28 -46 -34 40 -35 47 0
-3 15 4 -22 5 -29 -6 36 12 -30 -14 44 -20 38 -21 -45 27 -39 28 -46 -34 40 -35 47 0
-3 15 4 -22 5 -29 -6 36 12 -30 -14 44 -20 38 -21 -45 27 -39 -28 -46 -34 40 -35 47 0
-3 -15 4 -22 5 -29 -6 36 12 -30 -14 44 -20 38 -21 -45 27 -39 28 -46 -34 40 35 -47 0
-3 15 -4 -22 5 -29 6 -36 12 -30 -14 -44 -20 38 -21 45 -27 39 -28 -46 -34 40 -35 47 0
-3 15 -4 -22 5 -29 -6 -36 -12 30 -14 -44 -20 38 -21 45 -27 39 -28 -46 -34 40 -35 47 0
-3 15 -4 -22 5 -29 6 -36 -12 -30 -14 -44 -20 38 -21 45 -27 39 -28 -46 -34 40 -35 47 0
-3 -15 4 -22 5 -29 -6 36 12 -30 -14 44 -20 38 -21 -45 27 -39 -28 -46 -34 40 35 -47 0
-3 15 -4 -22 5 -29 6 -36 -12 30 -14 -44 -20 38 -21 45 -27 39 -28 -46 -34 40 -35 47 0
-3 15 -4 -22 5 -29 -6 -36 12 -30 -14 44 -20 38 -21 45 -27 39 28 -46 -34 40 -35 -47 0
-3 15 -4 -22 5 -29 6 -36 12 -30 -14 44 -20 38 -21 45 -27 39 28 -46 -34 40 -35 -47 0
-3 15 -4 -22 5 -29 -6 -36 -12 -30 -14 44 -20 38 -21 45 -27 39 28 -46 -34 40 -35 -47 0
-3 15 -4 -22 5 -29 -6 -36 -12 30 -14 44 -20 38 -21 45 -27 39 28 -46 -34 40 -35 -47 0
3 -15 4 -22 5 -29 -6 36 12 -30 -14 44 -20 38 -21 -45 27 -39 28 -46 -34 40 35 -47 0
3 -15 4 -22 5 -29 -6 36 12 -30 -14 44 -20 38 -21 -45 27 -39 -28 -46 -34 40 35 -47 0
-3 15 4 -22 5 -29 -6 36 12 -30 -14 44 -20 38 -21 -45 27 -39 28 -46 -34 40 35 -47 0
-3 15 4 -22 5 -29 -6 36 12 -30 -14 44 -20 38 -21 -45 27 -39 -28 -46 -34 40 35 -47 0
3 -15 4 -22 5 -29 -6 36 12 -30 -14 44 20 -38 -21 -45 -27 -39 28 -46 -34 -40 -35 -47 0
-3 15 4 -22 5 -29 -6 36 12 -30 -14 44 20 -38 -21 -45 -27 -39 28 -46 -34 -40 -35 -47 0
-3 -15 4 -22 5 -29 -6 36 12 -30 -14 44 20 -38 -21 -45 -27 -39 28 -46 -34 -40 35 -47 0
